TiO2_rutile_15K (JACS 109 3639-3646 1087
   1.00000000000000     
    12.9730319976999997    0.0000000000000000    0.0000000000000000
     0.0000000000000000   12.9730319976999997    0.0000000000000000
     0.0000000000000000    0.0000000000000000   17.7244205474999994
   Ti   O 
    96   192
Direct
  0.7510345864916381  0.0002148464412073  0.0834542459273645
  0.7507965723302630  1.0005857107762559  0.2499170089458911
  0.7511123068279608  0.0005678537868097  0.4165296567823934
  0.7508467639948040  0.0003547223774241  0.5832624155200710
  0.7509138839784243  1.0001166615193140  0.7500080130337934
  0.7507554700909397 -0.0000015775820453  0.9167659100329997
  0.7496997494189915  0.2501523855120291  0.9999468557755706
  0.7497846937377306  0.2503499179668366  0.1666949661335209
  0.7499379410818496  0.2507489445446653  0.3334353427853136
  0.7501389348236567  0.2504978972981702  0.5000670760401056
  0.7499796400407192  0.2501833277232940  0.6667058875458208
  0.7497908593181803  0.2501549581691476  0.8333125400855285
  0.7492312090671863  0.5001810207744081  0.0832565996665023
  0.7496174091699798  0.5005096650903790  0.2499087820604817
  0.7493714740067594  0.5005111057785954  0.4166098827459278
  0.7494028346269611  0.5003624901906337  0.5832599853056567
  0.7495532996885383  0.5002248189362610  0.7498715100698264
  0.7496522696063305  0.5000580599101334  0.9165027334124327
  0.7499071963313205  0.7496865084608090 -0.0001360746481268
  0.7500588267299830  0.7505193758976586  0.1665839623492420
  0.7501821779124096  0.7503361631192795  0.3332661189362582
  0.7502859976491763  0.7504528260785479  0.4998787585182201
  0.7501793700039926  0.7501635175212958  0.6665138229937002
  0.7500176823060258  0.7501052766284806  0.8331985456312470
  0.5009826331921966  1.0003540166488289  1.0015211976024692
  0.5008856598356709  1.0005354583881580  0.1667444487211632
  0.5009375121934049  0.0004706744087671  0.3318558023046781
  0.5010580085546126  0.0003777865430862  0.4993389256060316
  0.5009684023166289  1.0001776823886654  0.6666812784117621
  0.5009257798426040  1.0001931512691293  0.8339602785747714
  0.5001240471392109  0.2500000137826732  0.0831636713482905
  0.5000646510913975  0.2500149841981942  0.2501294644152326
  0.5001194973524260  0.2502152413163716  0.4165986469722347
  0.5001990896607887  0.2501826541204484  0.5832663755110886
  0.4999489056875562  0.2501122397857914  0.7499597216655557
  0.4998528190317245  0.2500894564967533  0.9166057477808415
  0.4993255214516700  0.5003783718621303  0.0001604572954611
  0.4993722224402228  0.5004253266466888  0.1666478320497262
  0.4993570308973932  0.5004211944125571  0.3330434420518237
  0.4991955254712827  0.5004670111497033  0.4997871520599877
  0.4993696948375688  0.5002518271739420  0.6665904519084650
  0.4994556673509625  0.5002563314424665  0.8333624357829110
  0.5002773202510837  0.7509645301623691  0.0831704162311587
  0.5004508891534107  0.7510074801529464  0.2500979071361335
  0.5002990245722366  0.7508009244572271  0.4165749493329554
  0.5003353490290561  0.7505363493807136  0.5832692615217000
  0.5000550476698081  0.7503913621410978  0.7499687461399944
  0.5000471961543422  0.7505976582626402  0.9166199687263399
  0.2508215481636242 -0.0003006158447566  0.0833782218339333
  0.2505647078352086 -0.0001970153594482  0.2498149063545922
  0.2510525812341791  0.9998605919398355  0.4164436454912510
  0.2508817989141765  0.9995689362442137  0.5832363589562701
  0.2509197506579658 -0.0007187556646693  0.7500021127261423
  0.2507641750770204  0.9994548387796083  0.9167277739851499
  0.2501697001284814  0.2499599096986886 -0.0002052192404141
  0.2503624728389855  0.2494771628324631  0.1665606402919127
  0.2503050322626025  0.2501323487392027  0.3333006989458097
  0.2502579996404996  0.2498018732285282  0.4999404127931418
  0.2501530598556457  0.2494923704982284  0.6665434351849444
  0.2499438780934599  0.2492459605620162  0.8331560877054531
  0.2492872922431802  0.4996000544017011  0.0832778003084433
  0.2495656907027997  0.4997152482929744  0.2499013499185245
  0.2492559857613837  0.4998721272484822  0.4165910894747042
  0.2493412206364194  0.4996909899327776  0.5832685126319516
  0.2495290286237393  0.4993577229534167  0.7498982554989705
  0.2494686517769595  0.4994499493766312  0.9165461376188352
  0.2503453099091091  0.7495530240120318  0.9999706031704261
  0.2506598415513601  0.7497344052009289  0.1666398025198146
  0.2505945801825872  0.7497565677229133  0.3333123526367239
  0.2503939777267674  0.7497675756808809  0.4999491120503043
  0.2502509594512823  0.7495464324514138  0.6666558266346921
  0.2500832545244892  0.7492730088456526  0.8333348062757612
  0.0009269138768367  0.9995385668555736  0.9999813394910921
  0.0008545124913501 -0.0001498088116253  0.1666926549582923
  0.0009470449115847 -0.0002784295492190  0.3333164815170903
  0.0011231332625010  0.9995165913413236  0.4999579240514635
  0.0009727045417819  0.9994363647862998  0.6666423640380893
  1.0008787481557149 -0.0004304125340349  0.8332892053825485
  1.0001060965318636  0.2495897164700482  0.0833360270024225
  0.0000164157470547  0.2497076987319666  0.2499887309347535
  1.0002277374854105  0.2495889178196487  0.4166454501243297
  0.0001630766536103  0.2493838569358433  0.5833600652391715
 -0.0000384313896260  0.2493817373084680  0.7499944074721845
 -0.0002207646953708  0.2494416653293535  0.9166659457937761
 -0.0006921448535968  0.4995345308634233 -0.0001091739038658
  0.9993677715603161  0.4998101890034062  0.1665781174190781
  0.9993703711986139  0.4997370118841062  0.3332265980045443
  0.9992564463537910  0.4995033854950235  0.4999524908281210
  0.9994327910178150  0.4994972784516088  0.6666084353301193
  0.9995017190929059  0.4995202396629924  0.8331958235341049
  1.0002040469509101  0.7497021071452949  0.0832903146101653
  1.0004784370042159  0.7497610863617373  0.2498953915249857
  0.0002609837316634  0.7495701744360668  0.4165218957511400
  1.0004079684778624  0.7494563572798838  0.5832409473669392
  0.0000739352458431  0.7495024796259145  0.7499257980860743
  0.0000888406532406  0.7495560160547642  0.9166249116744253
  0.9013951553384818  0.2492840388563230  0.9999786674525836
  0.9014962177147908  0.2498211890713432  0.1666373560045882
  0.9016247965281133  0.2499103588163752  0.3334456890223170
  0.9016318363820635  0.2495252417909148  0.5001040239069254
  0.9014529343387852  0.2491491659884347  0.6666611502797636
  0.9013278026990781  0.2490408058973859  0.8331515790078889
  0.9016027237532345  0.7497758739583082 -0.0001066022072841
  0.9017335780088378  0.7503644631899906  0.1666585249000267
  0.9018236080408391  0.7502845572384679  0.3332110634119180
  0.9017787645318639  0.7502146172843797  0.5000418045867326
  0.9016762327553179  0.7499083599373390  0.6665181413124334
  0.9015755698776127  0.7500102758179255  0.8331548495390523
  0.8498122126873977  1.0000967674690533  0.9997625651251739
  0.8501444377285723  1.0000441389116428  0.1667664907435359
  0.8498959871321767  1.0001618681667912  0.3334136403508043
  0.8497687313005949  0.0003135249132326  0.5001620165486779
  0.8495852437957727  0.0000962997220148  0.6665992435495813
  0.8495577637895574  0.9999930212959193  0.8332229012839110
  0.8480699661810025  0.5000456305845365  0.9999676527796185
  0.8481585875864526  0.4999201237133618  0.1665188772861705
  0.8481655218358414  0.5000438092287349  0.3333312711159910
  0.8480470070448863  0.5000310393412429  0.5000510048738094
  0.8481801836811051  0.5001557628189256  0.6665794056513592
  0.8482639182979160  0.5000745069146687  0.8330100952827073
  0.7503059215830599  0.1518541405177818  0.0832227087026484
  0.7505548835637496  0.1521366911356117  0.2502984651450278
  0.7504898771559231  0.1520352632082797  0.4168258766688115
  0.7500560971125624  0.1517550140920852  0.5833412990065021
  0.7498910383425200  0.1515176984902264  0.7499629239438778
  0.7497527726188957  0.1515746106084211  0.9165021662430270
  0.7501408745466437  0.3489096258603211  0.0832307711793395
  0.7504733508889990  0.3491675211462170  0.2499644509486716
  0.7507603863907407  0.3492375060590254  0.4169801104610427
  0.7503214369278314  0.3490111204727819  0.5834936153685699
  0.7503206646783716  0.3488607626753696  0.7498814183473391
  0.7509618714834309  0.3488516252241646  0.9164649012110673
  0.7505307651367328  0.6514421342699481  0.0833961217772370
  0.7508942463330823  0.6517165672468074  0.2498789912840494
  0.7509780702893935  0.6516840461245158  0.4167988044518687
  0.7503711747233243  0.6516592537985813  0.5832007145090435
  0.7503801742215064  0.6515038841152933  0.7497729150098947
  0.7508647030436382  0.6512874272437045  0.9162647505433695
  0.7504681132379283  0.8485655497198455  0.0829292003736718
  0.7502708195964521  0.8488839769909839  0.2501352263734153
  0.7507103996476466  0.8489716997789218  0.4166982421755885
  0.7504082394187622  0.8489019110991981  0.5832928119822033
  0.7505716413051824  0.8487015206770094  0.7497862368733413
  0.7503019374686113  0.8484674374796257  0.9165663642893352
  0.6530974178937842  1.0003345837518229  0.9998167529480771
  0.6545903731502274  1.0006480992147617  0.1666739076486382
  0.6530492245904951  1.0008442221389589  0.3336309499007875
  0.6526841194308146  0.0005336846122566  0.4999907934039047
  0.6524270680728140  0.0002282123789069  0.6667052026075488
  0.6524910661419808 -0.0001847226866108  0.8330993407282616
  0.6510581005672507  0.5005207754319511 -0.0003434261666302
  0.6511474986858831  0.5005305778329067  0.1667422481747269
  0.6510845947803234  0.5006181913679080  0.3332988786966188
  0.6508832953747381  0.5006872719026184  0.5000206784631933
  0.6509323105010917  0.5004491898285113  0.6666219725820001
  0.6510838120071366  0.5002653460707818  0.8331264008875529
  0.5989929946273651  0.2526772181546736 -0.0007600358233738
  0.5989131230401653  0.2509431617794771  0.1667295702262046
  0.5991586033497979  0.2525556952808419  0.3339332106374465
  0.5989187269316909  0.2511284038379229  0.5001582032010479
  0.5987470176320058  0.2507868361894597  0.6666934932490558
  0.5986858644604438  0.2513210965032885  0.8330387643143035
  0.5991578286593838  0.7474491140095109 -0.0007309738052994
  0.5991765725005349  0.7493833268753944  0.1666431479833970
  0.5993895175566671  0.7478778499844052  0.3339124229155582
  0.5990614189663500  0.7495665402521589  0.5001121429698951
  0.5989034209686833  0.7495828765210601  0.6667146116894646
  0.5988614330024277  0.7493653711245872  0.8330166749343919
  0.5005125856681018  0.1024374611925903  0.0794899718046745
  0.5005041515713636  0.1024948227740602  0.2539164844864239
  0.5003291751496488  0.0993667595389565  0.4172557125769876
  0.5007010495716814  0.0989069252617279  0.5834257830146810
  0.5007004755911617  0.0988553042775342  0.7499154193129005
  0.5008495686719403  0.0991910313679148  0.9160762903734639
  0.4999548333629636  0.4021770897815967  0.0832455174228895
  0.4997159176814764  0.4021636340156504  0.2500448968040997
  0.4996431333149766  0.4020192682368131  0.4169100342064588
  0.4995708222001251  0.4017586043655296  0.5833279677673222
  0.4994377126455168  0.4016457939357548  0.7497804741788570
  0.4994809008213729  0.4019139076657262  0.9162748569658742
  0.4990090450310224  0.5986346689488872  0.0832288411840464
  0.4989036579106327  0.5987196298838686  0.2500467916947091
  0.4988730954056255  0.5989094851231641  0.4168619354136897
  0.4989777384556472  0.5989819801014180  0.5833860449411005
  0.4991565497830548  0.5988508256335535  0.7498068061935529
  0.4988941270801880  0.5987128360636597  0.9162903120076488
  0.5014113784666915  0.8984620830640693  0.0796643211403270
  0.5015725143122853  0.8984893469800164  0.2538517683834364
  0.5013777416845255  0.9015428641782873  0.4171649601505807
  0.5015471024297805  0.9016694882317735  0.5833566503924563
  0.5010047811961009  0.9015365676466022  0.7499304155764206
  0.5012762420386718  0.9013747257995156  0.9161822961422458
  0.4009597915209610  0.2523584064375998  0.9993538073054592
  0.4012587903492064  0.2504472354038625  0.1666262873796462
  0.4010297833542458  0.2523316174121683  0.3339074039497707
  0.4013945980797587  0.2505391147422367  0.5001944811098108
  0.4014065036280655  0.2500863107188293  0.6665716810620299
  0.4011565757488074  0.2500593742783026  0.8329783941745137
  0.4011179442033008  0.7492016676631836  0.9993940290679540
  0.4014923143294143  0.7509887063649087  0.1666926979133575
  0.4013098471298250  0.7494479746235811  0.3338473077977163
  0.4015292919683626  0.7506579307270062  0.5001770929026206
  0.4014819472167508  0.7507710579306824  0.6665875094998071
  0.4012943614338256  0.7502085066796585  0.8330538377743838
  0.3487504236267472  0.9994913712458795  0.9996758068506625
  0.3471297422025656 -0.0003709781391470  0.1666927495234561
  0.3487196027994208 -0.0004759068698523  0.3333546259373243
  0.3493557111596677  0.9993636604195909  0.5000990522596884
  0.3493965038617888 -0.0008335642599054  0.6666119114867961
  0.3492252854021659 -0.0005788051031272  0.8332186827430488
  0.3477004947563322  0.4993187237685694  0.9998798495546296
  0.3477317463076112  0.4992816644108736  0.1665498692975026
  0.3477620512496324  0.4992995467400098  0.3333892718823093
  0.3476890195156638  0.4996810165022947  0.5000063487477505
  0.3479272674581625  0.4995279556465579  0.6665799690498970
  0.3478865040638087  0.4996260087928645  0.8331029077013462
  0.2502672495403122  0.1513240726258487  0.0829065889576383
  0.2503530577034557  0.1514050085728959  0.2502461891900040
  0.2505260611210427  0.1513591097658183  0.4167145060584793
  0.2504637755937881  0.1510006119781083  0.5832462504979999
  0.2503735845627731  0.1507728450545449  0.7497418261682814
  0.2501528387577048  0.1510161632007528  0.9165700553518557
  0.2489525027363983  0.3483463689197842  0.0833132633825643
  0.2491047356716561  0.3484522439903061  0.2497461069871008
  0.2489117716313799  0.3486051654817173  0.4169044543856192
  0.2495216627229980  0.3483237278572884  0.5833724180773708
  0.2495153479840956  0.3480564426070972  0.7498202505201232
  0.2492029411977727  0.3482454636073816  0.9161398267971049
  0.2502234367053975  0.6509488339952377  0.0832735840449685
  0.2505726348011799  0.6510418033914668  0.2499673474294200
  0.2501629058320244  0.6510936510911034  0.4167970099732879
  0.2502310854866313  0.6510422632523361  0.5833267585236075
  0.2501113648690124  0.6507869448739803  0.7498279608361768
  0.2495656061934839  0.6507386745173424  0.9165670948253215
  0.2495576889333711  0.8481081413453521  0.0831680923105315
  0.2491829830858662  0.8482102265604806  0.2500772613652359
  0.2497394973249960  0.8483232398971861  0.4167361104884269
  0.2496317171746310  0.8481954198006164  0.5833483135459848
  0.2497380562936003  0.8479832482901282  0.7500391368224580
  0.2496863414036657  0.8479883385632541  0.9164727669638627
  0.1519153514411382 -0.0004018289985842  0.9998119310979856
  0.1515067604366312  1.0003554908767869  0.1665755978396239
  0.1519136644477982  1.0001981239525368  0.3334875777230509
  0.1523082987595133 -0.0000974986053836  0.4999797453140586
  0.1522243593857565  0.9995470798460871  0.6667034493034553
  0.1520880400697496  0.9997042522992400  0.8330957115438624
  0.1506631471023399  0.4994859751396378 -0.0001815624353757
  0.1506994893080501  0.5002215098455614  0.1666904597251175
  0.1507070992546221  0.5001477462941412  0.3331975365165172
  0.1506202882625851  0.4999985461493941  0.5000449396011503
  0.1507752032112075  0.4996861542486038  0.6666429367040105
  0.1507796471377753  0.4994701858833895  0.8330967554213587
  0.0984934236953825  0.2500853337973877 -0.0002013401715339
  0.0986048368974644  0.2493892403148980  0.1666973135593879
  0.0986471382266485  0.2498806057621475  0.3333121232020302
  0.0987244436522517  0.2497298792709699  0.5001111213602536
  0.0986596644052998  0.2494716460417540  0.6667261847835269
  0.0984608377326334  0.2495321831828285  0.8332114877452256
  0.0986644759987248  0.7493468251712531  0.9998839107366618
  0.0988884229640122  0.7487376247885207  0.1665865498776338
  0.0988877005793257  0.7486881931719767  0.3333133154556287
  0.0988557550736662  0.7488585514999037  0.4999212457328772
  0.0987976652726672  0.7489958122673064  0.6667093697989451
  0.0986266029183041  0.7489991287503565  0.8331638636231287
  0.0006771951867483  0.0983288552031685  0.0831755779882406
  0.0005236685397861  0.0984503802554804  0.2501408058748425
  0.0008402388817755  0.0982951475189470  0.4167772655384548
  0.0010948831993831  0.0980824066224062  0.5833676466100486
  0.0006696971866428  0.0980844274180402  0.7498773124553199
  0.0008765471386005  0.0981685333401196  0.9165527677066279
  0.9995440766232204  0.4011139018947646  0.0832907066341134
 -0.0004179554991941  0.4011847075706512  0.2499023239908467
  0.9996324925545689  0.4011165513946969  0.4166292594462980
  0.9993682048764674  0.4008995008810561  0.5833426056604991
  0.9993842869561637  0.4008521542898669  0.7498727996224411
 -0.0010738709875831  0.4009327895007657  0.9164889774208558
 -0.0005204952755183  0.5982271886162956  0.0831481407291573
 -0.0008934948886962  0.5983197450375766  0.2499451757543138
  0.9991975985894553  0.5981739396071449  0.4166859027477665
  0.9995595258465895  0.5980942244982465  0.5833159805594003
  0.9996125238662292  0.5981155060031285  0.7498775776673471
  0.9996383743647728  0.5981019336064569  0.9165022556859017
  0.0008265663953568  0.9010417751977317  0.0833320478652418
  1.0013094462918120  0.9010713143127351  0.2500320065232067
  0.0011168719517441  0.9009494500953974  0.4166909659606097
  0.0012259137465709  0.9008613027797358  0.5833157004613686
  0.0007798974178677  0.9008856145864240  0.7499405526046039
  1.0008401633948540  0.9009261865721777  0.9165052696063303
 
  0.00000000E+00  0.00000000E+00  0.00000000E+00
  0.00000000E+00  0.00000000E+00  0.00000000E+00
  0.00000000E+00  0.00000000E+00  0.00000000E+00
  0.00000000E+00  0.00000000E+00  0.00000000E+00
  0.00000000E+00  0.00000000E+00  0.00000000E+00
  0.00000000E+00  0.00000000E+00  0.00000000E+00
  0.00000000E+00  0.00000000E+00  0.00000000E+00
  0.00000000E+00  0.00000000E+00  0.00000000E+00
  0.00000000E+00  0.00000000E+00  0.00000000E+00
  0.00000000E+00  0.00000000E+00  0.00000000E+00
  0.00000000E+00  0.00000000E+00  0.00000000E+00
  0.00000000E+00  0.00000000E+00  0.00000000E+00
  0.00000000E+00  0.00000000E+00  0.00000000E+00
  0.00000000E+00  0.00000000E+00  0.00000000E+00
  0.00000000E+00  0.00000000E+00  0.00000000E+00
  0.00000000E+00  0.00000000E+00  0.00000000E+00
  0.00000000E+00  0.00000000E+00  0.00000000E+00
  0.00000000E+00  0.00000000E+00  0.00000000E+00
  0.00000000E+00  0.00000000E+00  0.00000000E+00
  0.00000000E+00  0.00000000E+00  0.00000000E+00
  0.00000000E+00  0.00000000E+00  0.00000000E+00
  0.00000000E+00  0.00000000E+00  0.00000000E+00
  0.00000000E+00  0.00000000E+00  0.00000000E+00
  0.00000000E+00  0.00000000E+00  0.00000000E+00
  0.00000000E+00  0.00000000E+00  0.00000000E+00
  0.00000000E+00  0.00000000E+00  0.00000000E+00
  0.00000000E+00  0.00000000E+00  0.00000000E+00
  0.00000000E+00  0.00000000E+00  0.00000000E+00
  0.00000000E+00  0.00000000E+00  0.00000000E+00
  0.00000000E+00  0.00000000E+00  0.00000000E+00
  0.00000000E+00  0.00000000E+00  0.00000000E+00
  0.00000000E+00  0.00000000E+00  0.00000000E+00
  0.00000000E+00  0.00000000E+00  0.00000000E+00
  0.00000000E+00  0.00000000E+00  0.00000000E+00
  0.00000000E+00  0.00000000E+00  0.00000000E+00
  0.00000000E+00  0.00000000E+00  0.00000000E+00
  0.00000000E+00  0.00000000E+00  0.00000000E+00
  0.00000000E+00  0.00000000E+00  0.00000000E+00
  0.00000000E+00  0.00000000E+00  0.00000000E+00
  0.00000000E+00  0.00000000E+00  0.00000000E+00
  0.00000000E+00  0.00000000E+00  0.00000000E+00
  0.00000000E+00  0.00000000E+00  0.00000000E+00
  0.00000000E+00  0.00000000E+00  0.00000000E+00
  0.00000000E+00  0.00000000E+00  0.00000000E+00
  0.00000000E+00  0.00000000E+00  0.00000000E+00
  0.00000000E+00  0.00000000E+00  0.00000000E+00
  0.00000000E+00  0.00000000E+00  0.00000000E+00
  0.00000000E+00  0.00000000E+00  0.00000000E+00
  0.00000000E+00  0.00000000E+00  0.00000000E+00
  0.00000000E+00  0.00000000E+00  0.00000000E+00
  0.00000000E+00  0.00000000E+00  0.00000000E+00
  0.00000000E+00  0.00000000E+00  0.00000000E+00
  0.00000000E+00  0.00000000E+00  0.00000000E+00
  0.00000000E+00  0.00000000E+00  0.00000000E+00
  0.00000000E+00  0.00000000E+00  0.00000000E+00
  0.00000000E+00  0.00000000E+00  0.00000000E+00
  0.00000000E+00  0.00000000E+00  0.00000000E+00
  0.00000000E+00  0.00000000E+00  0.00000000E+00
  0.00000000E+00  0.00000000E+00  0.00000000E+00
  0.00000000E+00  0.00000000E+00  0.00000000E+00
  0.00000000E+00  0.00000000E+00  0.00000000E+00
  0.00000000E+00  0.00000000E+00  0.00000000E+00
  0.00000000E+00  0.00000000E+00  0.00000000E+00
  0.00000000E+00  0.00000000E+00  0.00000000E+00
  0.00000000E+00  0.00000000E+00  0.00000000E+00
  0.00000000E+00  0.00000000E+00  0.00000000E+00
  0.00000000E+00  0.00000000E+00  0.00000000E+00
  0.00000000E+00  0.00000000E+00  0.00000000E+00
  0.00000000E+00  0.00000000E+00  0.00000000E+00
  0.00000000E+00  0.00000000E+00  0.00000000E+00
  0.00000000E+00  0.00000000E+00  0.00000000E+00
  0.00000000E+00  0.00000000E+00  0.00000000E+00
  0.00000000E+00  0.00000000E+00  0.00000000E+00
  0.00000000E+00  0.00000000E+00  0.00000000E+00
  0.00000000E+00  0.00000000E+00  0.00000000E+00
  0.00000000E+00  0.00000000E+00  0.00000000E+00
  0.00000000E+00  0.00000000E+00  0.00000000E+00
  0.00000000E+00  0.00000000E+00  0.00000000E+00
  0.00000000E+00  0.00000000E+00  0.00000000E+00
  0.00000000E+00  0.00000000E+00  0.00000000E+00
  0.00000000E+00  0.00000000E+00  0.00000000E+00
  0.00000000E+00  0.00000000E+00  0.00000000E+00
  0.00000000E+00  0.00000000E+00  0.00000000E+00
  0.00000000E+00  0.00000000E+00  0.00000000E+00
  0.00000000E+00  0.00000000E+00  0.00000000E+00
  0.00000000E+00  0.00000000E+00  0.00000000E+00
  0.00000000E+00  0.00000000E+00  0.00000000E+00
  0.00000000E+00  0.00000000E+00  0.00000000E+00
  0.00000000E+00  0.00000000E+00  0.00000000E+00
  0.00000000E+00  0.00000000E+00  0.00000000E+00
  0.00000000E+00  0.00000000E+00  0.00000000E+00
  0.00000000E+00  0.00000000E+00  0.00000000E+00
  0.00000000E+00  0.00000000E+00  0.00000000E+00
  0.00000000E+00  0.00000000E+00  0.00000000E+00
  0.00000000E+00  0.00000000E+00  0.00000000E+00
  0.00000000E+00  0.00000000E+00  0.00000000E+00
  0.00000000E+00  0.00000000E+00  0.00000000E+00
  0.00000000E+00  0.00000000E+00  0.00000000E+00
  0.00000000E+00  0.00000000E+00  0.00000000E+00
  0.00000000E+00  0.00000000E+00  0.00000000E+00
  0.00000000E+00  0.00000000E+00  0.00000000E+00
  0.00000000E+00  0.00000000E+00  0.00000000E+00
  0.00000000E+00  0.00000000E+00  0.00000000E+00
  0.00000000E+00  0.00000000E+00  0.00000000E+00
  0.00000000E+00  0.00000000E+00  0.00000000E+00
  0.00000000E+00  0.00000000E+00  0.00000000E+00
  0.00000000E+00  0.00000000E+00  0.00000000E+00
  0.00000000E+00  0.00000000E+00  0.00000000E+00
  0.00000000E+00  0.00000000E+00  0.00000000E+00
  0.00000000E+00  0.00000000E+00  0.00000000E+00
  0.00000000E+00  0.00000000E+00  0.00000000E+00
  0.00000000E+00  0.00000000E+00  0.00000000E+00
  0.00000000E+00  0.00000000E+00  0.00000000E+00
  0.00000000E+00  0.00000000E+00  0.00000000E+00
  0.00000000E+00  0.00000000E+00  0.00000000E+00
  0.00000000E+00  0.00000000E+00  0.00000000E+00
  0.00000000E+00  0.00000000E+00  0.00000000E+00
  0.00000000E+00  0.00000000E+00  0.00000000E+00
  0.00000000E+00  0.00000000E+00  0.00000000E+00
  0.00000000E+00  0.00000000E+00  0.00000000E+00
  0.00000000E+00  0.00000000E+00  0.00000000E+00
  0.00000000E+00  0.00000000E+00  0.00000000E+00
  0.00000000E+00  0.00000000E+00  0.00000000E+00
  0.00000000E+00  0.00000000E+00  0.00000000E+00
  0.00000000E+00  0.00000000E+00  0.00000000E+00
  0.00000000E+00  0.00000000E+00  0.00000000E+00
  0.00000000E+00  0.00000000E+00  0.00000000E+00
  0.00000000E+00  0.00000000E+00  0.00000000E+00
  0.00000000E+00  0.00000000E+00  0.00000000E+00
  0.00000000E+00  0.00000000E+00  0.00000000E+00
  0.00000000E+00  0.00000000E+00  0.00000000E+00
  0.00000000E+00  0.00000000E+00  0.00000000E+00
  0.00000000E+00  0.00000000E+00  0.00000000E+00
  0.00000000E+00  0.00000000E+00  0.00000000E+00
  0.00000000E+00  0.00000000E+00  0.00000000E+00
  0.00000000E+00  0.00000000E+00  0.00000000E+00
  0.00000000E+00  0.00000000E+00  0.00000000E+00
  0.00000000E+00  0.00000000E+00  0.00000000E+00
  0.00000000E+00  0.00000000E+00  0.00000000E+00
  0.00000000E+00  0.00000000E+00  0.00000000E+00
  0.00000000E+00  0.00000000E+00  0.00000000E+00
  0.00000000E+00  0.00000000E+00  0.00000000E+00
  0.00000000E+00  0.00000000E+00  0.00000000E+00
  0.00000000E+00  0.00000000E+00  0.00000000E+00
  0.00000000E+00  0.00000000E+00  0.00000000E+00
  0.00000000E+00  0.00000000E+00  0.00000000E+00
  0.00000000E+00  0.00000000E+00  0.00000000E+00
  0.00000000E+00  0.00000000E+00  0.00000000E+00
  0.00000000E+00  0.00000000E+00  0.00000000E+00
  0.00000000E+00  0.00000000E+00  0.00000000E+00
  0.00000000E+00  0.00000000E+00  0.00000000E+00
  0.00000000E+00  0.00000000E+00  0.00000000E+00
  0.00000000E+00  0.00000000E+00  0.00000000E+00
  0.00000000E+00  0.00000000E+00  0.00000000E+00
  0.00000000E+00  0.00000000E+00  0.00000000E+00
  0.00000000E+00  0.00000000E+00  0.00000000E+00
  0.00000000E+00  0.00000000E+00  0.00000000E+00
  0.00000000E+00  0.00000000E+00  0.00000000E+00
  0.00000000E+00  0.00000000E+00  0.00000000E+00
  0.00000000E+00  0.00000000E+00  0.00000000E+00
  0.00000000E+00  0.00000000E+00  0.00000000E+00
  0.00000000E+00  0.00000000E+00  0.00000000E+00
  0.00000000E+00  0.00000000E+00  0.00000000E+00
  0.00000000E+00  0.00000000E+00  0.00000000E+00
  0.00000000E+00  0.00000000E+00  0.00000000E+00
  0.00000000E+00  0.00000000E+00  0.00000000E+00
  0.00000000E+00  0.00000000E+00  0.00000000E+00
  0.00000000E+00  0.00000000E+00  0.00000000E+00
  0.00000000E+00  0.00000000E+00  0.00000000E+00
  0.00000000E+00  0.00000000E+00  0.00000000E+00
  0.00000000E+00  0.00000000E+00  0.00000000E+00
  0.00000000E+00  0.00000000E+00  0.00000000E+00
  0.00000000E+00  0.00000000E+00  0.00000000E+00
  0.00000000E+00  0.00000000E+00  0.00000000E+00
  0.00000000E+00  0.00000000E+00  0.00000000E+00
  0.00000000E+00  0.00000000E+00  0.00000000E+00
  0.00000000E+00  0.00000000E+00  0.00000000E+00
  0.00000000E+00  0.00000000E+00  0.00000000E+00
  0.00000000E+00  0.00000000E+00  0.00000000E+00
  0.00000000E+00  0.00000000E+00  0.00000000E+00
  0.00000000E+00  0.00000000E+00  0.00000000E+00
  0.00000000E+00  0.00000000E+00  0.00000000E+00
  0.00000000E+00  0.00000000E+00  0.00000000E+00
  0.00000000E+00  0.00000000E+00  0.00000000E+00
  0.00000000E+00  0.00000000E+00  0.00000000E+00
  0.00000000E+00  0.00000000E+00  0.00000000E+00
  0.00000000E+00  0.00000000E+00  0.00000000E+00
  0.00000000E+00  0.00000000E+00  0.00000000E+00
  0.00000000E+00  0.00000000E+00  0.00000000E+00
  0.00000000E+00  0.00000000E+00  0.00000000E+00
  0.00000000E+00  0.00000000E+00  0.00000000E+00
  0.00000000E+00  0.00000000E+00  0.00000000E+00
  0.00000000E+00  0.00000000E+00  0.00000000E+00
  0.00000000E+00  0.00000000E+00  0.00000000E+00
  0.00000000E+00  0.00000000E+00  0.00000000E+00
  0.00000000E+00  0.00000000E+00  0.00000000E+00
  0.00000000E+00  0.00000000E+00  0.00000000E+00
  0.00000000E+00  0.00000000E+00  0.00000000E+00
  0.00000000E+00  0.00000000E+00  0.00000000E+00
  0.00000000E+00  0.00000000E+00  0.00000000E+00
  0.00000000E+00  0.00000000E+00  0.00000000E+00
  0.00000000E+00  0.00000000E+00  0.00000000E+00
  0.00000000E+00  0.00000000E+00  0.00000000E+00
  0.00000000E+00  0.00000000E+00  0.00000000E+00
  0.00000000E+00  0.00000000E+00  0.00000000E+00
  0.00000000E+00  0.00000000E+00  0.00000000E+00
  0.00000000E+00  0.00000000E+00  0.00000000E+00
  0.00000000E+00  0.00000000E+00  0.00000000E+00
  0.00000000E+00  0.00000000E+00  0.00000000E+00
  0.00000000E+00  0.00000000E+00  0.00000000E+00
  0.00000000E+00  0.00000000E+00  0.00000000E+00
  0.00000000E+00  0.00000000E+00  0.00000000E+00
  0.00000000E+00  0.00000000E+00  0.00000000E+00
  0.00000000E+00  0.00000000E+00  0.00000000E+00
  0.00000000E+00  0.00000000E+00  0.00000000E+00
  0.00000000E+00  0.00000000E+00  0.00000000E+00
  0.00000000E+00  0.00000000E+00  0.00000000E+00
  0.00000000E+00  0.00000000E+00  0.00000000E+00
  0.00000000E+00  0.00000000E+00  0.00000000E+00
  0.00000000E+00  0.00000000E+00  0.00000000E+00
  0.00000000E+00  0.00000000E+00  0.00000000E+00
  0.00000000E+00  0.00000000E+00  0.00000000E+00
  0.00000000E+00  0.00000000E+00  0.00000000E+00
  0.00000000E+00  0.00000000E+00  0.00000000E+00
  0.00000000E+00  0.00000000E+00  0.00000000E+00
  0.00000000E+00  0.00000000E+00  0.00000000E+00
  0.00000000E+00  0.00000000E+00  0.00000000E+00
  0.00000000E+00  0.00000000E+00  0.00000000E+00
  0.00000000E+00  0.00000000E+00  0.00000000E+00
  0.00000000E+00  0.00000000E+00  0.00000000E+00
  0.00000000E+00  0.00000000E+00  0.00000000E+00
  0.00000000E+00  0.00000000E+00  0.00000000E+00
  0.00000000E+00  0.00000000E+00  0.00000000E+00
  0.00000000E+00  0.00000000E+00  0.00000000E+00
  0.00000000E+00  0.00000000E+00  0.00000000E+00
  0.00000000E+00  0.00000000E+00  0.00000000E+00
  0.00000000E+00  0.00000000E+00  0.00000000E+00
  0.00000000E+00  0.00000000E+00  0.00000000E+00
  0.00000000E+00  0.00000000E+00  0.00000000E+00
  0.00000000E+00  0.00000000E+00  0.00000000E+00
  0.00000000E+00  0.00000000E+00  0.00000000E+00
  0.00000000E+00  0.00000000E+00  0.00000000E+00
  0.00000000E+00  0.00000000E+00  0.00000000E+00
  0.00000000E+00  0.00000000E+00  0.00000000E+00
  0.00000000E+00  0.00000000E+00  0.00000000E+00
  0.00000000E+00  0.00000000E+00  0.00000000E+00
  0.00000000E+00  0.00000000E+00  0.00000000E+00