TiO2_rutile_15K (JACS 109 3639-3646 1087
   1.00000000000000     
    12.9730319976999997    0.0000000000000000    0.0000000000000000
     0.0000000000000000   12.9730319976999997    0.0000000000000000
     0.0000000000000000    0.0000000000000000   17.7244205474999994
   Ti   O 
    96   192
Direct
  0.7462985777113722  0.0005441667941503  0.0814334798221738
  0.7495822888072076  0.9973291767510301  0.2481252239792243
  0.7503085774020649  0.0004773710033024  0.4140869287113397
  0.7568456160721683  0.0105464509382388  0.5840637635014475
  0.7490037942672986  0.9983950968040394  0.7536989144639108
  0.7514152853128363  0.0057606671779392  0.9170780481178249
  0.7519498693447396  0.2541858339951240  0.9983784868751475
  0.7423431398140466  0.2445155062782177  0.1645388677619200
  0.7453242822332971  0.2554214194110233  0.3300008590415919
  0.7467535816349508  0.2507841511769773  0.4941097240806721
  0.7561083420929025  0.2603578360850566  0.6613630349210211
  0.7539107301942602  0.2412641055314825  0.8252761146020912
  0.7535235112090736  0.4990310073336368  0.0818557789701107
  0.7433306223210194  0.4974431807923806  0.2520601573043364
  0.7518001938023539  0.5025366881820501  0.4170562925243656
  0.7444906502033187  0.5009311484484001  0.5847459475282556
  0.7516635049291266  0.5047537685289910  0.7531293792850279
  0.7403318301615818  0.4940084599962977  0.9185561050052444
  0.7492221309092149  0.7504365345426746  0.0034825366965004
  0.7539711268790429  0.7464911578274546  0.1688501569381094
  0.7495537116584807  0.7482729700090018  0.3397988203377313
  0.7472498071010961  0.7443197550676193  0.5059473632819015
  0.7481958366839367  0.7574036519032639  0.6724383516143551
  0.7551898895647042  0.7462626685796607  0.8373913936299091
  0.4920146932143027  0.9936486708062602  0.9988290906777935
  0.5023066712068058  0.9973085153631096  0.1664073224686856
  0.5063844070503678  0.0020556964714943  0.3319284831050751
  0.5023326577655939  0.0066020512913295  0.5007421627670872
  0.5083269926405555  0.9954415594665234  0.6677750449433466
  0.4969732366466766  0.9998668770640469  0.8350819639121334
  0.4937213153559606  0.2436166685886601  0.0823763418112927
  0.5014520071134618  0.2501608228721413  0.2510822345703303
  0.4979081564479846  0.2563140050466387  0.4189847232947705
  0.4988919251017949  0.2548804263051991  0.5836575839160262
  0.4972477985527038  0.2479915809409167  0.7487341404289715
  0.5078937361996084  0.2465340800832045  0.9153182942017688
  0.4951735751976615  0.4959370200791294  0.0030346625812055
  0.5035197746661488  0.5048459593228203  0.1713498155361211
  0.5000643930457650  0.5011834158869671  0.3366921471551257
  0.4974926382227617  0.5074467434031772  0.5045115020103124
  0.4989578386246629  0.4980226282357813  0.6692199433496560
  0.4897124967765132  0.5019203354584089  0.8350807315658542
  0.4992911113723478  0.7533460720844319  0.0887373170405588
  0.5083697396040719  0.7478195471906729  0.2513788709876728
  0.4949227114021531  0.7591550945195311  0.4198105312612470
  0.4901191100478645  0.7551802433237287  0.5876962984831002
  0.4973500836831343  0.7466708441260128  0.7560091582069116
  0.5075713275555843  0.7463886496952096  0.9197396324491652
  0.2483545206145625  0.0023968322620542  0.0855291319687179
  0.2554697942857794  0.0030711977775226  0.2548521435018072
  0.2562638890741163  0.9979843328798499  0.4186874573614170
  0.2533132602714417  0.9922531209502388  0.5841702772968211
  0.2500421859140127  0.0004870990614341  0.7486700661773561
  0.2483613613922298  0.9993438815836938  0.9132576376450513
  0.2480363097690070  0.2487850701645591  0.0002902871076110
  0.2488861977412964  0.2587785196259846  0.1647067378860971
  0.2543945716965914  0.2491625686717382  0.3290479256805600
  0.2501077271638674  0.2409511936997830  0.5033532017277867
  0.2539318716130943  0.2476942217398745  0.6668651131885428
  0.2495313839244379  0.2522005586594692  0.8312570957584078
  0.2488057540948707  0.5135488410811754  0.0855748334726079
  0.2429456955796679  0.5065055950830530  0.2531908702456012
  0.2563433984710166  0.4881052271976833  0.4159444226796852
  0.2403011241053255  0.4936443103855740  0.5844074138628644
  0.2500299162043947  0.4995042742668502  0.7506780040585396
  0.2416356506020199  0.4960837479551222  0.9161940731125440
  0.2520385900540855  0.7465265033567728  0.9998488316019438
  0.2461881139767889  0.7646952696280751  0.1685097333797995
  0.2513677091430633  0.7519768297072932  0.3354772008396965
  0.2444116561110048  0.7405009012670785  0.4956011733697506
  0.2486769586600854  0.7514710429871897  0.6657015147403901
  0.2511756286522714  0.7495256082400539  0.8345862757959279
  0.0009186972114708  0.9966507205159230  0.9987031676590233
  0.0059038340510463  0.0070466226013461  0.1652878229334224
  0.0084871261048850  0.0028691678986354  0.3279399339351125
  0.0019025857511422  0.9979341509090679  0.4915613656184142
  0.0032470382955589  0.9938549980147231  0.6592439564647611
  0.9997826227704524  0.0009075475790457  0.8312071264703272
  0.9944532157005913  0.2474647979629200  0.0822076930770464
  0.0031064010495363  0.2550381481170227  0.2455078379138427
  0.9959217703502539  0.2482098333554863  0.4094403055751752
  0.0025452008335199  0.2458692390949160  0.5746934339459273
  0.0074735549270383  0.2466780407897926  0.7433853904613948
  0.0065738303761631  0.2482116764618665  0.9126264878311132
  0.0009007645185580  0.4954719884432461  0.0010057321872799
  0.9960775324747202  0.5065638394750105  0.1675103416417020
  0.9988108331982550  0.4988518326681733  0.3318825640459571
  0.9968141038158130  0.5024604595982167  0.4988846366504423
  0.9925249833042412  0.4917538073615358  0.6662484888379349
  0.9974778405863820  0.4988035531673741  0.8347376595567388
  0.9995500585840486  0.7492404712605281  0.0815453235022939
  0.9986346017662641  0.7552705940961588  0.2495843154686771
  0.0015480530630899  0.7461597550518780  0.4201181090859366
  0.9935095025311431  0.7466038204886738  0.5870884792246200
  0.0016877063352869  0.7507664695606782  0.7523099968308515
  0.0037055412763344  0.7527152322467024  0.9166784384769024
  0.8967866852645593  0.2495805784897709  0.9952527573006731
  0.8983242865357505  0.2396445351911334  0.1644757518263692
  0.9028474516734958  0.2510400698473546  0.3268961515663055
  0.9005054975079619  0.2449891992164360  0.4918491335416603
  0.9062986472149580  0.2443420468441510  0.6607118722139739
  0.9043952049368630  0.2413276606592174  0.8269349773445606
  0.9031101810363961  0.7579009063844088  0.0006527407069720
  0.9025305383524168  0.7495952383094909  0.1631221328888160
  0.9017212239512057  0.7524139705189837  0.3355308522436647
  0.8975526337576318  0.7539783480716494  0.4998717619275780
  0.9023602409761581  0.7526495623640589  0.6725219310618823
  0.9001982244889677  0.7455941629287656  0.8313252286881117
  0.8517473912459319  0.9909737758668602  0.9991554077016386
  0.8513326100282842  0.9963251914850834  0.1642636212350858
  0.8503547031524039  0.9927946152573233  0.3332090527637688
  0.8478417698504801  0.0092993368812761  0.4956848562476444
  0.8495253986373509  0.0032283009973938  0.6692187137464398
  0.8472470925392012  0.9977677890323982  0.8357084222559769
  0.8487350802613308  0.4922359881962888  0.9970855708702001
  0.8538114061742630  0.5010851331659979  0.1743568386620128
  0.8482209408470511  0.5057578251204572  0.3261796048572720
  0.8439708479743815  0.5079774847954220  0.4990515897254393
  0.8409195009321097  0.4983410848630273  0.6689466015388194
  0.8377525681464618  0.5081211142294464  0.8384113642690093
  0.7487035061266674  0.1485920715097978  0.0759999081005426
  0.7414503564919366  0.1471083499100714  0.2502537698849199
  0.7496785868321294  0.1520953380292703  0.4106684917482574
  0.7564171978801552  0.1606759838053570  0.5770047157756880
  0.7547377211737617  0.1507741110867915  0.7432067367343250
  0.7585530535383335  0.1545402902173747  0.9145537247349894
  0.7580070565687742  0.3506356115550088  0.0842623187646429
  0.7326719835042584  0.3475663376972852  0.2469034741279155
  0.7536953561447109  0.3529470842010176  0.4118054128851224
  0.7577132647812689  0.3519398167220493  0.5775577784254290
  0.7521449697371602  0.3466867800166964  0.7500311184735682
  0.7456969793649891  0.3517179974332286  0.9121456177632361
  0.7608224028149621  0.6463992649786079  0.0802645225055544
  0.7609408515515326  0.6497713272319221  0.2579371095594906
  0.7515159762346471  0.6489315564043726  0.4204379572338687
  0.7466088430940725  0.6546754555489909  0.5872880103894188
  0.7493170826952339  0.6525341840737509  0.7501548211011767
  0.7404926622391002  0.6513048777821879  0.9200373269111668
  0.7481517142987463  0.8462822050783604  0.0876116219967970
  0.7450567760384432  0.8502151784544252  0.2497268973885391
  0.7470130103508523  0.8458113808632637  0.4205782290908928
  0.7598908759890880  0.8578154389037390  0.5864926667393919
  0.7509107986377012  0.8483188762199206  0.7540726551596877
  0.7562772083654000  0.8525968060203968  0.9189414094232403
  0.6504666789925069  0.9979385199410221  0.9992854299193534
  0.6517788209982601  0.9955884525030358  0.1642759505346704
  0.6511907262828317  0.9994814767188130  0.3342233515325721
  0.6515684677621902  0.0131677395866648  0.4964276741253583
  0.6550294124054390  0.0023013152204858  0.6649921298613459
  0.6508830815823961  0.0067965765012003  0.8339589047359248
  0.6484193667087748  0.5004976767500385  0.0070433934098385
  0.6534599075550771  0.5017905326460321  0.1675232964473097
  0.6495780790313804  0.5039706566060967  0.3406793642942564
  0.6507189761075841  0.5067730231210954  0.4979852595354818
  0.6506144980613670  0.4984827351680650  0.6693255260240436
  0.6451775735165870  0.5029367890587024  0.8318396769431577
  0.6005836050367190  0.2591627314803387  0.0016988988581944
  0.5987227893550419  0.2340428891789172  0.1653419687144580
  0.5972772083093805  0.2523880741283971  0.3339578867274572
  0.5991943096127529  0.2634844060570790  0.4977777571563526
  0.6008559767879829  0.2560034731152961  0.6632685359285379
  0.5995862937673482  0.2401051020210136  0.8292379896811048
  0.6021509634663574  0.7583864518489996  0.0014141474756439
  0.6081316230061589  0.7465132408347397  0.1652457039760056
  0.5991348265953714  0.7435881163417120  0.3344902846769731
  0.5921084343294359  0.7447995575198897  0.5048085939998735
  0.5963573958631646  0.7559353363061477  0.6675901311167801
  0.6045983263933623  0.7550503728567473  0.8283476164210882
  0.4915145286622890  0.0961669604289912  0.0827567242631801
  0.4923300111797168  0.1047061197687032  0.2579224555287508
  0.5058281961592769  0.1066939991516454  0.4160020035204026
  0.4937884306824036  0.1004007089781633  0.5840854947657742
  0.4946528946608728  0.0995871270946814  0.7523632523748077
  0.4954523916308755  0.0953183282960073  0.9211622757012210
  0.4851311028872529  0.4001491534230745  0.0899438381356337
  0.5059903339240374  0.4028664358479076  0.2541270533573710
  0.5099641384029837  0.4050861215785839  0.4176982747901701
  0.5011968915224549  0.4099610715030034  0.5786725112613157
  0.4964449377639667  0.4034575513439453  0.7515291892357481
  0.5032909482245623  0.3976553325057183  0.9152437352211754
  0.5047859970043341  0.5994154032711673  0.0838232284035693
  0.4971863256551117  0.5988122292134134  0.2573918126565846
  0.4937802988312300  0.6033379726300473  0.4197362548790711
  0.4987965369689073  0.6004873956405551  0.5841100335541363
  0.4988377345052600  0.5939773767347335  0.7471457396951114
  0.5049076470880011  0.5964165555593841  0.9145567783344110
  0.4867981630542390  0.8910552377639368  0.0783669716540738
  0.5030812270184742  0.8960808937642630  0.2521887632271483
  0.5121183418495827  0.9067636779005066  0.4220899029661546
  0.4947267384702489  0.9010451736074394  0.5836182830262447
  0.4978017117402408  0.9014910380447528  0.7518502879549562
  0.4988935733790879  0.8962858923876255  0.9146058181522654
  0.4015747421894913  0.2489741665443889  0.9954033059358788
  0.4034527725570419  0.2478683544179137  0.1653031749067920
  0.4044411445007877  0.2619653109949224  0.3343109803403804
  0.4028372961280456  0.2492022650505226  0.5007639586977909
  0.4073266431978098  0.2510785106724664  0.6674393892152108
  0.4024829406139145  0.2476470094703014  0.8328344688928115
  0.4021182224460014  0.7441353532715838  0.9953543019086464
  0.4041904982039206  0.7484485210236619  0.1726203956558504
  0.4053924802083826  0.7557756778117221  0.3384606349100405
  0.3989539439104015  0.7597518113245044  0.5032609611927329
  0.3927618629189040  0.7567986503912708  0.6727993465695078
  0.4084114960081925  0.7502333411775335  0.8407197576388153
  0.3403740191419864  0.9989759207376868  0.9987934751132057
  0.3487645265985020  0.0064745988392317  0.1709376829260104
  0.3547163338741465  0.0049836961423512  0.3355599527180642
  0.3493245847609996  0.9967842650818237  0.5011364757602230
  0.3540162248473908  0.0045252279093797  0.6638326038406862
  0.3466102390838945  0.0078342462677753  0.8328400527972243
  0.3475489999446792  0.4993437955992477  0.9964469040335696
  0.3420833984068258  0.5067117286981082  0.1696073854805792
  0.3488128931952756  0.4949961570442593  0.3299783892076356
  0.3467751506418891  0.4858034042285446  0.4986130774498814
  0.3463593726249902  0.4987964300379729  0.6597207553623207
  0.3436516406626929  0.4882200338118269  0.8327017664971870
  0.2490199735395229  0.1557747996597285  0.0863683773005079
  0.2475480800809784  0.1500698949364441  0.2485028024777043
  0.2560447002337982  0.1526964122233950  0.4187817628602840
  0.2460258539255112  0.1453626361878075  0.5854955106987968
  0.2442802856524440  0.1506738870040277  0.7515935746651508
  0.2485535394620364  0.1515713432878223  0.9185249486782571
  0.2429653112544210  0.3551598017833639  0.0844854452216376
  0.2468490808896701  0.3520953051642782  0.2475542556309779
  0.2556245129426521  0.3434159992357728  0.4150416100311065
  0.2459661036826301  0.3425243095144291  0.5847280287144829
  0.2593682760279865  0.3435163373757869  0.7492569433346087
  0.2471718533891385  0.3477090341359709  0.9141740754827514
  0.2533265026466097  0.6602644672815818  0.0870392349620231
  0.2347904232562590  0.6589483903287576  0.2526417907612968
  0.2597881922396842  0.6455015792176021  0.4153181845458253
  0.2532368626391284  0.6456751059269321  0.5870839328274786
  0.2547560548264945  0.6505035569978457  0.7504983603548805
  0.2578985889801028  0.6480208370050569  0.9128206487139680
  0.2431320545584650  0.8510645092105991  0.0780486730683855
  0.2527745139859332  0.8573905653314732  0.2560358477126886
  0.2494209230766213  0.8456477076244705  0.4222029337254791
  0.2493902245420945  0.8426563894990795  0.5816565423790099
  0.2479836395386096  0.8505235240935142  0.7466218948589259
  0.2515386871336309  0.8483747236292370  0.9173295879986738
  0.1563009398862324  0.0026195477229464  0.9971691536599370
  0.1557269875999481  0.9917535379407113  0.1610950801688862
  0.1588736685770991  0.9946014226113907  0.3361792957208592
  0.1562314540063594  0.0008986472253580  0.4982165662276706
  0.1496839019564946  0.9931605882412661  0.6678701832428638
  0.1481630881632909  0.9937664406180968  0.8302385010004466
  0.1533362301805143  0.5111225686567018  0.0001929217058237
  0.1475583538389543  0.5100908160989958  0.1653940419907129
  0.1507762815080231  0.4990942770318770  0.3366492431225652
  0.1505997523559336  0.4963612605414212  0.4992084736612702
  0.1449748418461805  0.4856457448966507  0.6663581669842338
  0.1539124018777902  0.4982808509548018  0.8335594541848852
  0.0940157053788768  0.2452228858570147  0.0055731542658083
  0.1016701390532780  0.2522246646569341  0.1662122028153292
  0.0991865823060016  0.2446596794246029  0.3303636972147234
  0.1019860758681712  0.2425910397267960  0.4945885020500024
  0.1082331994560640  0.2568344369915184  0.6592607359646504
  0.0989405340398344  0.2517232617513334  0.8273432551495682
  0.0992043447661969  0.7445614068599316  0.9997252177427260
  0.1032762067926105  0.7509021877231443  0.1655035599041521
  0.0964810490580490  0.7564192836135313  0.3337693188950503
  0.0978954066910069  0.7449831103932422  0.5075090785207910
  0.0956011991527806  0.7421075229504017  0.6672570659616864
  0.1064688294747335  0.7513546245014042  0.8355250014540525
  0.0010613775134309  0.0941536181050127  0.0779481634013054
  0.0136646568317867  0.1017466369460154  0.2491612021073784
  0.0047315953787332  0.1000391556459713  0.4091033762693059
  0.0046617367623157  0.0945375328778061  0.5796195112534626
  0.0033432415732872  0.0969303431250009  0.7488292777738780
  0.0053929814839582  0.0984722626455172  0.9163649670176864
  0.9957803388299682  0.3977768462549749  0.0905210814473748
  0.0009552634849712  0.4061941862778566  0.2496296085080744
  0.9976519135702153  0.4007074720989193  0.4225021974991552
  0.9936358760154284  0.3968276153839046  0.5782683337621122
  0.9933183705742314  0.3978260975588178  0.7505870812142295
  0.0082460267315209  0.3961136180557103  0.9174514582873806
  0.0023089859616326  0.5985054235881460  0.0788598108841006
  0.0004652776971347  0.6017329851147770  0.2532380443592313
  0.9948819031636994  0.5980572389470963  0.4177096984641664
  0.9986997704182458  0.5955209656477495  0.5835743852314264
  0.9984756961734903  0.5923326323313659  0.7506156141410748
  0.9981391708426434  0.5958384612863636  0.9163318674691214
  0.0137562090765127  0.9001388607144660  0.0834692844431403
  0.9976198243741544  0.9022201462488258  0.2471441712868402
  0.0177307302943364  0.8979822107499574  0.4193474932521615
  0.0033486461997839  0.8990482778879877  0.5779010648010345
  0.0001272046393858  0.9009169034657155  0.7494630251839748
  0.9972566560520194  0.8984496634556506  0.9139946814732078
 
 -0.11161406E-02 -0.78168377E-04 -0.33222364E-02
 -0.33045461E-02  0.32779580E-02 -0.93768856E-03
  0.26929652E-02  0.90475779E-03  0.25380304E-02
 -0.17450912E-02  0.80722547E-03 -0.32249503E-02
  0.48827202E-03 -0.17417914E-02 -0.15381988E-02
  0.13450049E-02 -0.28006403E-02 -0.23868001E-02
 -0.99396186E-03  0.93787376E-04 -0.24564052E-02
  0.13526562E-02 -0.13219945E-02  0.20730298E-03
  0.23417426E-02  0.18998902E-02 -0.17579384E-02
 -0.24351503E-03  0.17701008E-03  0.22847675E-02
 -0.40615508E-03 -0.12785840E-02  0.12447107E-02
  0.40667879E-02 -0.11151555E-02  0.32655500E-02
  0.31409792E-02  0.17245130E-02 -0.12123329E-02
 -0.32388345E-02 -0.76308754E-03 -0.68784628E-02
 -0.34101568E-02  0.94436169E-03 -0.16748741E-02
  0.67112718E-04 -0.10200063E-02  0.24494118E-02
  0.11275790E-02  0.53660829E-03 -0.23246452E-05
  0.26178961E-02 -0.36290187E-03  0.86088400E-03
 -0.95957928E-04 -0.16573649E-02  0.26822296E-02
  0.10084587E-03 -0.48137992E-03 -0.10147854E-02
  0.11907922E-03 -0.35547958E-02  0.49355576E-03
 -0.20917336E-02 -0.93924901E-03  0.20006219E-02
 -0.34670647E-02  0.37590940E-02  0.25322064E-03
  0.30803325E-02 -0.58941329E-02  0.32384819E-03
  0.35819136E-02 -0.67336923E-03 -0.33980770E-02
  0.76126235E-03  0.13126416E-03 -0.23135321E-02
  0.22254366E-02 -0.70953283E-03 -0.85783211E-03
  0.12850607E-02 -0.10245059E-02  0.28455731E-03
 -0.52441610E-03 -0.19566004E-02  0.90085475E-03
  0.23223074E-02  0.26066469E-02 -0.23677579E-02
 -0.12747612E-02  0.27269098E-02 -0.23777117E-02
  0.28306281E-02 -0.18638289E-02  0.53192054E-03
  0.31930947E-02  0.22878810E-02 -0.20316511E-02
  0.10162328E-02 -0.50512055E-03  0.45898053E-02
  0.15875652E-02  0.25057938E-03  0.29359986E-02
 -0.22025045E-02  0.13305904E-02  0.23430819E-03
  0.65198643E-02 -0.25434003E-02  0.42061046E-02
  0.29462288E-02  0.34151672E-02 -0.15497263E-02
 -0.29854351E-02  0.14318097E-02  0.22076423E-02
  0.48661184E-02 -0.10071305E-02 -0.61631447E-03
  0.11384065E-02 -0.11884146E-02 -0.81163947E-03
  0.21300951E-02 -0.18389778E-02 -0.30182122E-02
  0.90262230E-04 -0.13080439E-02  0.92278290E-03
 -0.42331279E-03 -0.71571102E-03 -0.38021409E-03
 -0.35262316E-02 -0.75560957E-03  0.37002881E-02
  0.10766556E-02 -0.42519078E-02  0.12264495E-02
 -0.17427053E-02  0.21517729E-02 -0.39003847E-03
  0.21297232E-02 -0.11559030E-02 -0.25209636E-02
 -0.14516620E-02 -0.14298836E-02  0.78667967E-03
 -0.77850986E-04 -0.39572576E-02 -0.23528701E-03
 -0.21416605E-02 -0.11053910E-02  0.24459840E-03
 -0.47407636E-02  0.11607001E-02 -0.58495715E-02
  0.10159650E-03  0.44817494E-02  0.85740112E-04
 -0.41026142E-03  0.27829986E-02 -0.25811411E-02
 -0.43329139E-03  0.24456205E-02 -0.19937195E-02
 -0.26700546E-02  0.22397243E-02 -0.31984075E-02
  0.27055181E-02 -0.14842769E-02  0.43917319E-02
 -0.20056410E-02 -0.28772931E-03  0.31340743E-03
  0.60238117E-02  0.22031705E-02  0.30783067E-03
  0.96365673E-03 -0.19611024E-02 -0.10105840E-02
 -0.37632761E-02  0.23056960E-02  0.38388903E-02
  0.21358860E-02  0.54874959E-02  0.22172495E-02
 -0.79319776E-03  0.34525341E-02  0.13337282E-02
 -0.64163697E-02  0.16176856E-02 -0.22567085E-02
  0.26951217E-02 -0.66063857E-03 -0.43677049E-02
  0.34369085E-02 -0.11780543E-02  0.20730124E-02
 -0.12914926E-02  0.10875183E-02  0.78974516E-03
  0.34651329E-02  0.40508365E-03  0.21311194E-02
  0.88955580E-03  0.22034267E-03  0.73683793E-03
 -0.20922282E-03  0.19808094E-02 -0.35547488E-05
 -0.37799319E-03 -0.52370223E-02  0.26079621E-03
 -0.21350723E-02  0.18911536E-03  0.27575736E-02
 -0.27095350E-03  0.47199791E-04  0.43813145E-02
 -0.11929910E-02  0.59713401E-03 -0.53866844E-04
 -0.18932816E-03 -0.14529964E-02  0.14902316E-02
  0.17964933E-02 -0.26600860E-02  0.28731700E-02
  0.15263115E-02  0.82562608E-03 -0.99278002E-03
 -0.15327388E-03 -0.37803985E-03 -0.27049152E-02
 -0.26526393E-02 -0.37204408E-03 -0.38320377E-03
  0.49253822E-03  0.88550279E-03 -0.15762408E-02
  0.18233393E-02  0.12838320E-02  0.21194107E-02
 -0.15268218E-02 -0.82360255E-03 -0.35936550E-02
  0.22242644E-02  0.40229977E-02 -0.10738689E-02
 -0.19248840E-02 -0.19944836E-02 -0.26845432E-02
  0.18336600E-03  0.44572189E-02  0.17341528E-02
 -0.34764209E-03 -0.20586823E-02 -0.26551391E-02
 -0.53561193E-03  0.28899970E-04 -0.30072906E-02
 -0.15674699E-02  0.20632633E-02  0.17143604E-02
 -0.12383075E-03  0.16971828E-02 -0.11372864E-02
  0.93374523E-03  0.15439934E-02 -0.11034258E-02
 -0.47262499E-02 -0.32518504E-03 -0.13199438E-02
 -0.45601518E-03  0.22752726E-02 -0.84670827E-03
  0.19285257E-02 -0.17602084E-02  0.68587186E-03
  0.42490642E-03 -0.84568701E-03  0.13167844E-02
  0.81091243E-03 -0.10016008E-02  0.11614271E-02
  0.90940991E-03  0.20341355E-02 -0.39296859E-03
 -0.68086671E-03 -0.14182496E-02 -0.78713170E-02
  0.71730893E-02 -0.17043318E-02  0.39475735E-02
  0.78903816E-03  0.35754871E-02 -0.64991388E-03
 -0.58785902E-02 -0.27427718E-02 -0.44204050E-02
  0.62867815E-03 -0.61776438E-03 -0.57015293E-02
  0.56791237E-03  0.55455028E-03 -0.48888209E-02
  0.17536451E-02 -0.10770156E-02  0.40026978E-03
  0.55608514E-02 -0.45732931E-02  0.42867032E-02
  0.22557895E-02 -0.18832341E-02  0.14145716E-02
 -0.17615852E-02 -0.10891421E-02  0.17808589E-02
  0.24513937E-02 -0.48749177E-02 -0.41977350E-02
 -0.75595549E-02  0.85398368E-02  0.33967628E-02
  0.30267077E-02  0.79818894E-02 -0.37090191E-03
 -0.49603222E-02 -0.38620671E-02  0.10406510E-02
 -0.59489723E-02 -0.18247207E-03 -0.23567851E-02
 -0.17711219E-02 -0.83761328E-03 -0.50705224E-02
  0.14248603E-02  0.68718042E-04  0.46057080E-02
 -0.27851704E-02  0.76196528E-03 -0.41836833E-02
 -0.63600170E-02  0.12484573E-01 -0.88713474E-03
  0.77587523E-03 -0.69956027E-02  0.24324358E-02
  0.29470116E-02 -0.11153005E-03  0.99441978E-02
 -0.14975481E-03  0.47529196E-03 -0.63348850E-02
  0.20649070E-02 -0.84380001E-03  0.28450422E-02
 -0.32430247E-02 -0.47066111E-02 -0.28166103E-02
  0.52357437E-02  0.37554001E-02 -0.59136571E-03
 -0.43466598E-03  0.24084165E-02  0.88109507E-02
  0.25848951E-02  0.42227060E-03 -0.40856186E-02
  0.44059890E-03  0.43326592E-02 -0.55805907E-04
 -0.31910678E-02  0.36893715E-02 -0.18276492E-02
 -0.75572208E-03 -0.40042020E-02 -0.21723719E-02
  0.38127015E-02 -0.34998093E-02 -0.99307058E-03
  0.14477713E-02 -0.45324962E-02  0.32879988E-02
  0.22826571E-02  0.83889425E-02  0.46887534E-02
  0.18593059E-02  0.73474906E-03  0.61241884E-02
 -0.17990571E-03 -0.18388600E-04  0.14316796E-02
 -0.22712673E-02 -0.98146231E-03 -0.33425087E-04
  0.48741930E-03 -0.11101591E-02 -0.11404248E-02
  0.42572665E-02 -0.15253709E-02  0.56417709E-02
  0.12598022E-02 -0.37127281E-02  0.10762417E-02
 -0.11480319E-01 -0.22985639E-02 -0.17064708E-02
  0.58145249E-02  0.28255582E-02 -0.19995589E-02
 -0.40426142E-02 -0.39577343E-02 -0.32628377E-02
  0.31671825E-03 -0.56297123E-02 -0.54140322E-02
 -0.24752246E-02  0.20660023E-02 -0.12091193E-02
  0.45823588E-02  0.16857661E-03  0.51604764E-03
  0.37943837E-02  0.28923596E-02 -0.36367628E-02
  0.48855645E-02 -0.28411249E-02  0.49440535E-03
 -0.25023099E-03  0.12219508E-02  0.62061588E-02
  0.55182104E-02 -0.26096086E-02  0.23040012E-02
  0.35634267E-03  0.39895868E-02  0.39495526E-02
 -0.33176076E-02  0.49152104E-02  0.29060193E-02
  0.69298020E-02  0.28333800E-02  0.47659435E-03
 -0.51405781E-02 -0.53818643E-02  0.32237033E-02
  0.31762656E-03  0.53840992E-02  0.51199631E-02
 -0.51490540E-02  0.78257760E-03 -0.26802895E-02
 -0.12170312E-02 -0.65016770E-02  0.15796046E-02
  0.51941296E-03 -0.72666768E-02 -0.66865374E-02
 -0.21570516E-02  0.70732121E-02  0.29124171E-02
 -0.14951456E-02  0.58378067E-02  0.26208129E-02
  0.43269668E-02 -0.65947825E-02  0.31163968E-02
 -0.32294282E-03  0.82772091E-03  0.82344499E-02
 -0.18155391E-02 -0.30325082E-02 -0.37187942E-02
 -0.35408299E-02 -0.72984969E-03  0.46161696E-03
 -0.67998588E-02 -0.10326106E-02  0.39326112E-02
  0.44685321E-02 -0.18757895E-02 -0.70269178E-02
 -0.42402224E-02 -0.25132800E-02  0.25309801E-02
 -0.21794405E-03  0.44664902E-02  0.46654935E-02
 -0.62968393E-03  0.24785637E-02  0.62819897E-02
  0.22953302E-02 -0.18062338E-02 -0.78220925E-03
 -0.58450315E-03 -0.59650716E-02 -0.23666757E-02
  0.22630897E-02  0.33761706E-02 -0.51252484E-03
 -0.17896470E-02  0.33935440E-03  0.20564723E-02
 -0.16573501E-02  0.76178982E-03  0.34037418E-02
  0.50805792E-02  0.24127021E-03 -0.20996432E-02
 -0.31083340E-02  0.20614283E-02  0.18179832E-02
 -0.36129697E-02  0.25978577E-02  0.35110058E-02
 -0.27517063E-02  0.23336219E-04 -0.17726456E-02
  0.22410223E-02  0.35600868E-02  0.10012449E-01
  0.31523233E-02  0.91321949E-03 -0.11705184E-01
 -0.55540791E-02 -0.67353028E-02  0.32487650E-02
  0.51950536E-03 -0.14448080E-02 -0.54696027E-03
 -0.30932223E-02 -0.29914786E-02 -0.50987220E-02
  0.29767794E-02 -0.44549704E-02  0.31048280E-02
  0.35443704E-02 -0.39771944E-04 -0.76333037E-03
 -0.66305692E-03  0.13882899E-02 -0.15266763E-02
 -0.16903397E-02  0.13070609E-02 -0.19064146E-02
 -0.34665727E-02 -0.37084380E-03 -0.10380356E-02
 -0.85544994E-03 -0.17764725E-02  0.67711085E-02
 -0.58099911E-02 -0.24846231E-02 -0.27584421E-02
 -0.18491278E-02  0.20123684E-02  0.34468139E-02
 -0.13027112E-02 -0.28916249E-02  0.26715439E-02
 -0.72201208E-02 -0.36926161E-02  0.24930561E-03
  0.29077779E-02 -0.48956720E-02 -0.68286232E-02
  0.96965497E-03  0.43361525E-02  0.34027157E-02
 -0.23966954E-02  0.68941269E-03  0.16440172E-02
  0.44785064E-02  0.25154371E-03  0.37457201E-02
 -0.31268943E-02 -0.56649398E-03  0.59330229E-03
  0.21282600E-02  0.79255543E-02  0.21282600E-02
  0.29069198E-02 -0.50270782E-02 -0.47608971E-02
  0.19833710E-02 -0.40406770E-03  0.42256740E-03
  0.21726007E-02  0.46583985E-02 -0.59695449E-02
  0.49185935E-02  0.64969921E-03 -0.60915850E-02
 -0.55232224E-02  0.19107433E-02  0.15091811E-02
 -0.42230255E-02 -0.64442014E-02  0.20601228E-02
 -0.79631468E-02  0.11803060E-02  0.35547295E-03
 -0.73112901E-02  0.14922719E-02  0.41509410E-02
 -0.15417967E-02  0.53713335E-02 -0.31892653E-02
 -0.10082127E-01 -0.34405611E-02 -0.33037304E-02
  0.12154913E-02 -0.23899489E-02  0.19836959E-02
  0.24352727E-02  0.51388551E-03  0.16800858E-02
  0.72605811E-02 -0.12237229E-02 -0.58302629E-03
 -0.11556925E-01  0.42466853E-02  0.24567781E-04
 -0.12000824E-02  0.13914175E-02  0.94489484E-03
  0.39402389E-02 -0.50096470E-02  0.46686262E-02
  0.11603559E-03 -0.17219349E-02  0.14072172E-02
 -0.86544784E-03 -0.20269892E-02 -0.14700081E-02
 -0.57175696E-02  0.20539207E-02 -0.21476003E-02
 -0.23129719E-02 -0.66211749E-02  0.28797216E-03
  0.43304044E-02  0.12108162E-02 -0.97894058E-03
  0.32654252E-02  0.31307510E-02  0.72784959E-02
  0.51601748E-02  0.74114270E-03  0.25099963E-02
 -0.10506047E-01  0.17286054E-02 -0.10211025E-02
  0.41239061E-02  0.39701269E-02 -0.14741175E-02
  0.27045689E-02 -0.33368758E-02 -0.54087952E-02
 -0.16711479E-02  0.56321364E-02 -0.43641956E-04
  0.15372570E-02 -0.35877653E-02  0.22426953E-02
  0.24922546E-02 -0.29961767E-02 -0.31363528E-02
 -0.14800059E-02  0.16473489E-02  0.12275041E-02
 -0.10006806E-01 -0.15855662E-02  0.21749422E-03
 -0.23616915E-02 -0.14806793E-03  0.34778445E-02
  0.15792380E-02 -0.20297169E-03  0.13842378E-02
 -0.44994027E-02  0.37955482E-02 -0.42856194E-02
  0.59794134E-02  0.79718846E-02  0.53797997E-02
 -0.85725982E-02  0.45845109E-02  0.37879372E-02
  0.18736618E-02 -0.47798627E-02 -0.98703304E-03
 -0.90811843E-02 -0.39204444E-02 -0.54004042E-03
  0.14741034E-02 -0.16679933E-02  0.28835744E-02
  0.41457481E-02 -0.38751077E-02 -0.70533960E-02
 -0.30770882E-02 -0.79257182E-03 -0.48430406E-03
 -0.16868390E-02  0.25342305E-02 -0.61867447E-02
  0.20562120E-02 -0.80892953E-03 -0.35587048E-03
  0.20880983E-02 -0.28954171E-02 -0.73399551E-03
  0.44140638E-03  0.25378186E-02 -0.13913012E-02
  0.97905530E-03  0.13686763E-02 -0.21862891E-02
 -0.52286130E-03  0.17317280E-02  0.27146392E-02
 -0.66745686E-02  0.23862022E-02 -0.12067997E-02
  0.17396505E-02  0.30996358E-02  0.31613300E-02
  0.10067918E-02 -0.17816521E-02  0.27062944E-02
 -0.64685964E-02 -0.32282846E-02 -0.18984975E-03
  0.29013332E-02 -0.68092425E-02 -0.36918163E-02
  0.24843944E-02  0.35312260E-02 -0.62141614E-03