TiO2_rutile_15K (JACS 109 3639-3646 1087
   1.00000000000000     
    12.9730319976999997    0.0000000000000000    0.0000000000000000
     0.0000000000000000   12.9730319976999997    0.0000000000000000
     0.0000000000000000    0.0000000000000000   17.7244205474999994
   Ti   O 
    96   192
Direct
  0.0000006710208060 -0.0000000128630075  0.0000004397769774
  0.0000004332350672 -0.0000004053182061  0.1666749272103280
  0.0000002544579852 -0.0000003332611823  0.3333248325147553
 -0.0000000065200069 -0.0000001498148257  0.4999996262049741
  0.0000002032972947  0.0000000825515826  0.6666751550809021
  0.0000002113012390  0.0000000452713819  0.8333249586833382
  0.0000000442563381  0.5000005383376249 -0.0000006153308401
  0.0000002241897562  0.5000004451056170  0.1666758579468670
 -0.0000000438039717  0.5000002805380397  0.3333238125975890
 -0.0000004964031041  0.5000001492719475  0.5000006041332572
 -0.0000003188377637  0.5000001446461302  0.6666747667354087
 -0.0000005912544949  0.5000004379676809  0.8333255939988840
  0.4999993668757891  0.0000002763577965  0.0000001509807751
  0.4999994943765821  0.0000001682308834  0.1666758523639444
  0.4999999926612307  0.0000003032580294  0.3333239834999404
  0.5000005316239912  0.0000001432390267  0.5000001565834326
  0.4999998993795762  0.0000002969991028  0.6666750535845014
  0.4999997663198771  0.0000004399630358  0.8333248272618009
  0.4999998497735849  0.4999995749552785  0.0000007484632154
  0.4999995287633281  0.4999994012635173  0.1666747022761734
  0.4999995449046725  0.4999992299087265  0.3333249280777623
  0.5000003053741378  0.4999999318104669  0.4999997261553430
  0.5000000910241627  0.4999998895398810  0.6666752891494223
  0.5000004206968469  0.4999995994276771  0.8333245464013023
  0.2500002170895916  0.2499996878273296  0.0000007230241966
  0.2500008847451817  0.2499998861545596  0.1666720355114943
  0.2500009592384063  0.2499999952008819  0.3333270895855155
  0.2500000189681449  0.2500001663872951  0.5000000652956017
  0.2500000961332133  0.2500001832110693  0.6666727034107923
  0.2500005999990073  0.2499998566706287  0.8333274396868645
  0.2499999247973600  0.7499999705256936  0.0000007331732190
  0.2500001173772757  0.7500000594971782  0.1666722944048825
  0.2499999305699437  0.7500000084277937  0.3333273695464966
  0.2500002020366119  0.7499999512455657  0.4999996378420551
  0.2500000058631417  0.7499998384285629  0.6666725461929908
  0.2500000118161220  0.7499998889929350  0.8333275164940165
  0.7499998190823445  0.2500005705826265  0.0000006906644452
  0.7499993040086737  0.2500004249136555  0.1666720043307620
  0.7499992702872007  0.2500002812371038  0.3333279552654574
  0.7499999027255163  0.2500003169279649  0.4999998579491426
  0.7499997773244150  0.2500005278903222  0.6666728183202087
  0.7499991819024608  0.2500006446180421  0.8333266897209606
  0.7500003104211694  0.7499993231972372  0.0000005818346137
  0.7500002692359163  0.7499997956438093  0.1666724195704740
  0.7500003570897302  0.7500000690317873  0.3333275692660090
  0.7499999438933429  0.7499996461729532  0.4999997232049436
  0.7500000897206596  0.7499992651557471  0.6666722021017246
  0.7499999952663867  0.7499991733756851  0.8333275425035526
  0.0000001243751801  0.2499998459674541  0.0833526354067629
 -0.0000001337304311  0.2500002215687053  0.2500006070630804
 -0.0000002036989558  0.2499997052260482  0.4166460100118128
 -0.0000001322620549  0.2500003761347790  0.5833541087469774
  0.0000001558154428  0.2500001276170664  0.7499992680025682
  0.0000003542823736  0.2500004581287750  0.9166474428834961
 -0.0000003439200551  0.7500000758102506  0.0833537702012056
 -0.0000005594243000  0.7499998097398682  0.2499998551352303
 -0.0000004076576994  0.7500004247846365  0.4166460863796488
 -0.0000001788770585  0.7499997227874406  0.5833532805753830
 -0.0000000095943017  0.7499996940602947  0.7500001321516516
 -0.0000000784893407  0.7499992489952566  0.9166468605251420
  0.4999996391755393  0.2500005528566855  0.0833535045595438
  0.4999997672920896  0.2499998743758952  0.2500008273041039
  0.5000001453328951  0.2500003060983285  0.4166450065129957
  0.5000002033767827  0.2500000638187826  0.5833541127247150
  0.5000002139418651  0.2500001705898907  0.7500001295536224
  0.4999999409304087  0.2500001073756866  0.9166463025496553
  0.4999998452431554  0.7499997296387841  0.0833539745368964
  0.4999999460163777  0.7500004812419803  0.2499998377816952
  0.5000000592255417  0.7499998303062034  0.4166465559735006
  0.4999998825614144  0.7499998149451613  0.5833529456684770
  0.4999998304010059  0.7499998095403930  0.7500002860068156
  0.4999999021453814  0.7499999634368075  0.9166464345031324
  0.2500000364282053  0.0000000495896463  0.0833326954231630
  0.2500000552508452 -0.0000001375107450  0.2500000232251223
  0.2500000288346603 -0.0000002812698041  0.4166667126724890
  0.2500003581464729 -0.0000001470590063  0.5833327529426958
  0.2500005304912800  0.0000002640457301  0.7500000423888779
  0.2500002251418929  0.0000004426582030  0.9166678194544938
  0.2500001699524320  0.4999999903362593  0.0833326961868828
  0.2500005280351190  0.5000000516011240  0.2499996957023648
  0.2500007189735470  0.5000001930764664  0.4166671686995408
  0.2500004924844444  0.5000000296020767  0.5833326095292948
  0.2500003452921507  0.4999998097338136  0.7499997114949688
  0.2500001056545402  0.4999997285622553  0.9166681565739746
  0.7500001317074670 -0.0000003020486454  0.0833330016345484
  0.7499999579753087 -0.0000006885870699  0.2500004704222591
  0.7499996090501734 -0.0000001783900620  0.4166670986901260
  0.7499992931484000  0.0000003318828419  0.5833320336149641
  0.7499993795997669  0.0000006011721312  0.7500001727850556
  0.7499997936793255 -0.0000000879577095  0.9166672571857307
  0.7500001067814676  0.5000002396420198  0.0833325716553622
  0.7500000607178835  0.5000004825909213  0.2499998173599976
  0.7499998943015829  0.5000000450724984  0.4166678750051172
  0.7499998139150661  0.4999998048402225  0.5833321794510760
  0.7499999413949897  0.4999994162105025  0.7500002618200101
  0.7500001392398339  0.4999999952696695  0.9166672931942771
  0.4013410650916033  0.2499999460135164 -0.0000000482891903
  0.4013582232629212  0.2499999866958096  0.1666980332122192
  0.4013590975303980  0.2500000214673615  0.3333022784842696
  0.4013401030985785  0.2499998705044297  0.5000002067756694
  0.4013589685583218  0.2499998724805103  0.6666979561970381
  0.4013593405050065  0.2499999385273547  0.8333020375161677
  0.4013406352819501  0.7500001413154186 -0.0000002020117556
  0.4013595165732621  0.7500000499820185  0.1666984552377122
  0.4013593713220678  0.7500000999981438  0.3333017972092185
  0.4013408819316321  0.7500000361873401  0.5000000018167229
  0.4013589478427427  0.7500001837889538  0.6666982733732375
  0.4013591300504298  0.7500000536731960  0.8333018304265333
  0.9013413347008021  0.2499998256117780  0.0000002715495173
  0.9013591016703717  0.2499999754276454  0.1666982580680312
  0.9013601903895621  0.2499998749899113  0.3333018566145130
  0.9013410337189649  0.2499999426440116  0.4999997569577744
  0.9013597441982851  0.2499998941893020  0.6666982875332059
  0.9013591822020499  0.2499998932031892  0.8333019530463623
  0.9013407306223015  0.7500000583997076  0.0000001284404558
  0.9013593305072970  0.7500000946252722  0.1666980873450367
  0.9013595624383079  0.7500000566910893  0.3333020215638367
  0.9013407404102495  0.7499999726899610  0.5000000235800787
  0.9013587190584805  0.7500000725466330  0.6666982293242151
  0.9013585959443055  0.7500001418145956  0.8333018476815427
  0.1513726215419102 -0.0000000971856946 -0.0000000598488761
  0.1513361172515470 -0.0000000645549628  0.1667101189899620
  0.1513364462829709 -0.0000001053024668  0.3332900455768530
  0.1513731427719549 -0.0000001297524272  0.5000002778004329
  0.1513360352691192 -0.0000001041459800  0.6667101674472612
  0.1513359648029554 -0.0000001680849452  0.8332897765858834
  0.1513733630555395  0.5000000612964850 -0.0000003132923903
  0.1513362985501106  0.5000001249400129  0.1667102875239761
  0.1513363513311598  0.5000000449661800  0.3332900227879970
  0.1513731345374995  0.5000001362170577  0.5000001832706793
  0.1513362998877761  0.5000001270512608  0.6667101696988765
  0.1513367372435545  0.5000001315975934  0.8332900608622018
  0.6513736303571787 -0.0000001090708311 -0.0000002397676069
  0.6513369728253842 -0.0000001289136775  0.1667101476466467
  0.6513372716870215 -0.0000000937894797  0.3332898788388772
  0.6513736649286750 -0.0000000370897268  0.5000002757716916
  0.6513368164895168 -0.0000001205720444  0.6667101614447291
  0.6513371424880315 -0.0000000933746861  0.8332901417625784
  0.6513737620959490  0.5000000667675112  0.0000000454972923
  0.6513371667462442  0.5000001616785751  0.1667103746374664
  0.6513373248702558  0.5000001247361483  0.3332896894896976
  0.6513738839036175  0.5000000770889346  0.4999999509196712
  0.6513365463172752  0.5000000198374064  0.6667100733940501
  0.6513366259753516  0.5000000150341228  0.8332901479002537
  0.0986581219980115  0.2499998991971576  0.0000001103761462
  0.0986405324503450  0.2499999494026690  0.1666979796327437
  0.0986398706484178  0.2499998981082157  0.3333017021763795
  0.0986595266980832  0.2499999859745239  0.4999997580508219
  0.0986406291345699  0.2499998684655986  0.6666982351909594
  0.0986402261603079  0.2499999905010917  0.8333017812616276
  0.0986595029461029  0.7500000456833018 -0.0000001008724520
  0.0986407383436933  0.7500001069215565  0.1666979653866761
  0.0986408876110850  0.7500000684605730  0.3333019869611705
  0.0986592563916062  0.7500000301166759  0.4999999190215023
  0.0986410577334320  0.7499999548069457  0.6666981746129194
  0.0986411852186799  0.7500001122703431  0.8333017522315679
  0.5986594747794796  0.2499999335664539 -0.0000000999611235
  0.5986420901183772  0.2499999767155030  0.1666979299294429
  0.5986407682363174  0.2500000356643927  0.3333021437860612
  0.5986594100076712  0.2499998495074022  0.4999999761778974
  0.5986407466221284  0.2499998151672953  0.6666978047233407
  0.5986413488491235  0.2499998333143916  0.8333019126609624
  0.5986591153470054  0.7500002183278666 -0.0000001677105206
  0.5986402024398531  0.7500000281571036  0.1666983177761423
  0.5986402024518057  0.7500000577184466  0.3333016856409947
  0.5986591483306234  0.7499999899577269  0.4999999336566786
  0.5986412386267088  0.7500001142079190  0.6666981577185001
  0.5986411214893047  0.7500001119686526  0.8333017932505354
  0.3486272609302513 -0.0000000961459567 -0.0000002044475551
  0.3486638101978575 -0.0000001868800284  0.1667100606864211
  0.3486630231056052 -0.0000000887324165  0.3332900514028039
  0.3486262049711201 -0.0000000963631970  0.5000002302879345
  0.3486631989526717 -0.0000001152717065  0.6667099875723358
  0.3486634290059838 -0.0000001552957261  0.8332895729615204
  0.3486265165589243  0.5000000938466170 -0.0000004773518524
  0.3486634464816823  0.5000001522290394  0.1667101381510076
  0.3486631113129472  0.5000000767748192  0.3332899133707339
  0.3486259307722303  0.5000001099162156  0.5000001163655956
  0.3486629592135316  0.5000001116454643  0.6667099982197237
  0.3486630563248013  0.5000001263850947  0.8332899011730687
  0.8486263846407249 -0.0000000344238324 -0.0000002533035219
  0.8486630830766567 -0.0000001177770381  0.1667100142669947
  0.8486631876981078 -0.0000000538747652  0.3332896304760950
  0.8486268362331419 -0.0000000887043028  0.5000000630761159
  0.8486639401668055 -0.0000000816460618  0.6667100503742290
  0.8486633869230928 -0.0000000787561861  0.8332901307233782
  0.8486264926304203  0.4999999852058731 -0.0000000196951791
  0.8486630273704866  0.5000001620897286  0.1667102805922985
  0.8486634305539065  0.5000001355365767  0.3332895513330660
  0.8486271164169992  0.5000000929253859  0.4999998545088363
  0.8486643040595472  0.5000001133964174  0.6667099841039977
  0.8486635958854736  0.5000000292680228  0.8332899975400729
 -0.0000001007846260  0.4013648865321507  0.0833477904273987
 -0.0000000113434635  0.4013476200012221  0.2500000860297326
 -0.0000000230873033  0.4013652112156093  0.4166525621137944
 -0.0000000896117178  0.4013658897010714  0.5833477064956260
 -0.0000000277784509  0.4013476968272963  0.7499998384051745
 -0.0000000784446419  0.4013653456941259  0.9166523899322317
 -0.0000000146061461  0.9013657215395927  0.0833474812676184
 -0.0000001422974651  0.9013479920788641  0.2500000366352202
 -0.0000001508683665  0.9013654897475915  0.4166525528735862
 -0.0000000846865856  0.9013657161998687  0.5833479070200648
 -0.0000000071285998  0.9013482319119932  0.7500001315540572
  0.0000000604334909  0.9013662202194754  0.9166523217826330
  0.5000000969700688  0.4013661816234083  0.0833475898527938
  0.4999999780423310  0.4013486050769435  0.2499999426886597
  0.4999999000614548  0.4013656355668147  0.4166523956227802
  0.5000000724284941  0.4013656579996432  0.5833478297934764
  0.4999999565592012  0.4013485429562560  0.7500000570242407
  0.4999999930175107  0.4013659205089745  0.9166524776830617
  0.4999999466858572  0.9013659259371201  0.0833474371227395
  0.5000000003883375  0.9013475775183289  0.2499999416669239
  0.4999999772073442  0.9013652561514329  0.4166526128999861
  0.5000000627273476  0.9013657979112725  0.5833477883263285
  0.4999999873116363  0.9013480577711678  0.7499999824564781
  0.5000000500906119  0.9013657174951160  0.9166525559514214
  0.2499998236144413  0.1513356689817534  0.0833115028045037
  0.2499999138126563  0.1513141758022040  0.2499998388204331
  0.2499999597942306  0.1513352545106737  0.4166893150655879
  0.2500000196352098  0.1513350726853682  0.5833110237662084
  0.2499999565569919  0.1513134763918575  0.7499998141028670
  0.2499999043390679  0.1513347648688338  0.9166888467863678
  0.2499999091698070  0.6513357513957557  0.0833109166867628
  0.2500000114731113  0.6513138249292574  0.2500001930132056
  0.2499998698527826  0.6513350572543450  0.4166889301649819
  0.2499998639039332  0.6513351878570571  0.5833113811574164
  0.2499998500113371  0.6513139901598145  0.7500000553570584
  0.2499997951146757  0.6513349564035164  0.9166887793784328
  0.7500001862391805  0.1513352746838904  0.0833115796713904
  0.7500002187792852  0.1513137498820385  0.2499997363388356
  0.7500000469822737  0.1513350925627846  0.4166889395012164
  0.7500000771229507  0.1513345954789362  0.5833110721583141
  0.7500000979641933  0.1513133867402112  0.7500003150035781
  0.7500000271691790  0.1513342655394979  0.9166888125495087
  0.7500000672812906  0.6513349505297371  0.0833110832934456
  0.7500001909646308  0.6513127862101780  0.2500000283134471
  0.7500001655909294  0.6513348247765288  0.4166891860371527
  0.7500001987614389  0.6513355621556355  0.5833114904338124
  0.7500001461629625  0.6513145987228766  0.7500000893955087
  0.7500001234198737  0.6513351661402742  0.9166886138406011
  0.0000000372795987  0.0986348276513692  0.0833474185376079
 -0.0000001447883772  0.0986526529784565  0.2499998090597047
 -0.0000000415033758  0.0986350166488871  0.4166525034929084
  0.0000000238687926  0.0986340811278174  0.5833478328932307
  0.0000000208528640  0.0986518823765354  0.7499999978795763
  0.0000000361149682  0.0986342596008165  0.9166522116456364
 -0.0000000662934979  0.5986344805341812  0.0833474899227330
 -0.0000000790535577  0.5986516294869049  0.2500000623468400
  0.0000000149899306  0.5986342688703229  0.4166523858249516
 -0.0000000268623416  0.5986341016076524  0.5833475426876217
  0.0000000081000299  0.5986522044849908  0.7499997823752609
  0.0000000574905235  0.5986342771684925  0.9166523070326300
  0.5000000688086882  0.0986334924501450  0.0833473225182515
  0.4999998779278167  0.0986513152705521  0.2499997247878949
  0.4999999523529456  0.0986343390210947  0.4166525366274161
  0.4999999277403204  0.0986340727376493  0.5833476115860388
  0.4999999934448794  0.0986514156300728  0.7499999563583590
  0.5000001547288527  0.0986337682179160  0.9166525040225424
  0.4999999794675781  0.5986341762387216  0.0833474934566137
  0.5000000235686507  0.5986524052614388  0.2499998845887441
  0.5000000117479247  0.5986346587437150  0.4166523212494062
  0.5000000661588095  0.5986344765299388  0.5833477314826513
  0.5000000096815632  0.5986520153549650  0.7499999464799934
  0.4999999762458726  0.5986345069516820  0.9166522393545330
  0.2499999043377226  0.3486642587318688  0.0833113764678876
  0.2499999048676976  0.3486860153647192  0.2499997063368436
  0.2499998803006479  0.3486646878404597  0.4166891294393939
  0.2499998670172432  0.3486646993431075  0.5833109411335399
  0.2499998856887236  0.3486863931992149  0.7499996886789893
  0.2499998453609645  0.3486656632156319  0.9166887595543511
  0.2499998856070429  0.8486645150646548  0.0833108587767566
  0.2499999857223293  0.8486861749572809  0.2500000467578786
  0.2499999332823064  0.8486649280610074  0.4166888433022192
  0.2499998573467656  0.8486651072994239  0.5833112727703768
  0.2499999306614148  0.8486861990640705  0.7499999654067526
  0.2499997914189795  0.8486647259084346  0.9166886969250956
  0.7500001097745269  0.3486643872350508  0.0833113881898947
  0.7500001698330344  0.3486864052182068  0.2499995410348289
  0.7500001266869368  0.3486648722066317  0.4166887538528729
  0.7500001616954712  0.3486648283202242  0.5833110043659424
  0.7500000616300507  0.3486858681049229  0.7500001852139315
  0.7500002063191122  0.3486649916055398  0.9166887065357164
  0.7500000385394815  0.8486655054717276  0.0833109590790945
  0.7500000952435496  0.8486871334230961  0.2499999291263193
  0.7500001346879698  0.8486651436862697  0.4166890494568504
  0.7500001030872689  0.8486650199722756  0.5833112556903340
  0.7500001076971572  0.8486862022039972  0.7499999056990957
  0.7500001069223441  0.8486658275269965  0.9166884769485504
 
  0.00000000E+00  0.00000000E+00  0.00000000E+00
  0.00000000E+00  0.00000000E+00  0.00000000E+00
  0.00000000E+00  0.00000000E+00  0.00000000E+00
  0.00000000E+00  0.00000000E+00  0.00000000E+00
  0.00000000E+00  0.00000000E+00  0.00000000E+00
  0.00000000E+00  0.00000000E+00  0.00000000E+00
  0.00000000E+00  0.00000000E+00  0.00000000E+00
  0.00000000E+00  0.00000000E+00  0.00000000E+00
  0.00000000E+00  0.00000000E+00  0.00000000E+00
  0.00000000E+00  0.00000000E+00  0.00000000E+00
  0.00000000E+00  0.00000000E+00  0.00000000E+00
  0.00000000E+00  0.00000000E+00  0.00000000E+00
  0.00000000E+00  0.00000000E+00  0.00000000E+00
  0.00000000E+00  0.00000000E+00  0.00000000E+00
  0.00000000E+00  0.00000000E+00  0.00000000E+00
  0.00000000E+00  0.00000000E+00  0.00000000E+00
  0.00000000E+00  0.00000000E+00  0.00000000E+00
  0.00000000E+00  0.00000000E+00  0.00000000E+00
  0.00000000E+00  0.00000000E+00  0.00000000E+00
  0.00000000E+00  0.00000000E+00  0.00000000E+00
  0.00000000E+00  0.00000000E+00  0.00000000E+00
  0.00000000E+00  0.00000000E+00  0.00000000E+00
  0.00000000E+00  0.00000000E+00  0.00000000E+00
  0.00000000E+00  0.00000000E+00  0.00000000E+00
  0.00000000E+00  0.00000000E+00  0.00000000E+00
  0.00000000E+00  0.00000000E+00  0.00000000E+00
  0.00000000E+00  0.00000000E+00  0.00000000E+00
  0.00000000E+00  0.00000000E+00  0.00000000E+00
  0.00000000E+00  0.00000000E+00  0.00000000E+00
  0.00000000E+00  0.00000000E+00  0.00000000E+00
  0.00000000E+00  0.00000000E+00  0.00000000E+00
  0.00000000E+00  0.00000000E+00  0.00000000E+00
  0.00000000E+00  0.00000000E+00  0.00000000E+00
  0.00000000E+00  0.00000000E+00  0.00000000E+00
  0.00000000E+00  0.00000000E+00  0.00000000E+00
  0.00000000E+00  0.00000000E+00  0.00000000E+00
  0.00000000E+00  0.00000000E+00  0.00000000E+00
  0.00000000E+00  0.00000000E+00  0.00000000E+00
  0.00000000E+00  0.00000000E+00  0.00000000E+00
  0.00000000E+00  0.00000000E+00  0.00000000E+00
  0.00000000E+00  0.00000000E+00  0.00000000E+00
  0.00000000E+00  0.00000000E+00  0.00000000E+00
  0.00000000E+00  0.00000000E+00  0.00000000E+00
  0.00000000E+00  0.00000000E+00  0.00000000E+00
  0.00000000E+00  0.00000000E+00  0.00000000E+00
  0.00000000E+00  0.00000000E+00  0.00000000E+00
  0.00000000E+00  0.00000000E+00  0.00000000E+00
  0.00000000E+00  0.00000000E+00  0.00000000E+00
  0.00000000E+00  0.00000000E+00  0.00000000E+00
  0.00000000E+00  0.00000000E+00  0.00000000E+00
  0.00000000E+00  0.00000000E+00  0.00000000E+00
  0.00000000E+00  0.00000000E+00  0.00000000E+00
  0.00000000E+00  0.00000000E+00  0.00000000E+00
  0.00000000E+00  0.00000000E+00  0.00000000E+00
  0.00000000E+00  0.00000000E+00  0.00000000E+00
  0.00000000E+00  0.00000000E+00  0.00000000E+00
  0.00000000E+00  0.00000000E+00  0.00000000E+00
  0.00000000E+00  0.00000000E+00  0.00000000E+00
  0.00000000E+00  0.00000000E+00  0.00000000E+00
  0.00000000E+00  0.00000000E+00  0.00000000E+00
  0.00000000E+00  0.00000000E+00  0.00000000E+00
  0.00000000E+00  0.00000000E+00  0.00000000E+00
  0.00000000E+00  0.00000000E+00  0.00000000E+00
  0.00000000E+00  0.00000000E+00  0.00000000E+00
  0.00000000E+00  0.00000000E+00  0.00000000E+00
  0.00000000E+00  0.00000000E+00  0.00000000E+00
  0.00000000E+00  0.00000000E+00  0.00000000E+00
  0.00000000E+00  0.00000000E+00  0.00000000E+00
  0.00000000E+00  0.00000000E+00  0.00000000E+00
  0.00000000E+00  0.00000000E+00  0.00000000E+00
  0.00000000E+00  0.00000000E+00  0.00000000E+00
  0.00000000E+00  0.00000000E+00  0.00000000E+00
  0.00000000E+00  0.00000000E+00  0.00000000E+00
  0.00000000E+00  0.00000000E+00  0.00000000E+00
  0.00000000E+00  0.00000000E+00  0.00000000E+00
  0.00000000E+00  0.00000000E+00  0.00000000E+00
  0.00000000E+00  0.00000000E+00  0.00000000E+00
  0.00000000E+00  0.00000000E+00  0.00000000E+00
  0.00000000E+00  0.00000000E+00  0.00000000E+00
  0.00000000E+00  0.00000000E+00  0.00000000E+00
  0.00000000E+00  0.00000000E+00  0.00000000E+00
  0.00000000E+00  0.00000000E+00  0.00000000E+00
  0.00000000E+00  0.00000000E+00  0.00000000E+00
  0.00000000E+00  0.00000000E+00  0.00000000E+00
  0.00000000E+00  0.00000000E+00  0.00000000E+00
  0.00000000E+00  0.00000000E+00  0.00000000E+00
  0.00000000E+00  0.00000000E+00  0.00000000E+00
  0.00000000E+00  0.00000000E+00  0.00000000E+00
  0.00000000E+00  0.00000000E+00  0.00000000E+00
  0.00000000E+00  0.00000000E+00  0.00000000E+00
  0.00000000E+00  0.00000000E+00  0.00000000E+00
  0.00000000E+00  0.00000000E+00  0.00000000E+00
  0.00000000E+00  0.00000000E+00  0.00000000E+00
  0.00000000E+00  0.00000000E+00  0.00000000E+00
  0.00000000E+00  0.00000000E+00  0.00000000E+00
  0.00000000E+00  0.00000000E+00  0.00000000E+00
  0.00000000E+00  0.00000000E+00  0.00000000E+00
  0.00000000E+00  0.00000000E+00  0.00000000E+00
  0.00000000E+00  0.00000000E+00  0.00000000E+00
  0.00000000E+00  0.00000000E+00  0.00000000E+00
  0.00000000E+00  0.00000000E+00  0.00000000E+00
  0.00000000E+00  0.00000000E+00  0.00000000E+00
  0.00000000E+00  0.00000000E+00  0.00000000E+00
  0.00000000E+00  0.00000000E+00  0.00000000E+00
  0.00000000E+00  0.00000000E+00  0.00000000E+00
  0.00000000E+00  0.00000000E+00  0.00000000E+00
  0.00000000E+00  0.00000000E+00  0.00000000E+00
  0.00000000E+00  0.00000000E+00  0.00000000E+00
  0.00000000E+00  0.00000000E+00  0.00000000E+00
  0.00000000E+00  0.00000000E+00  0.00000000E+00
  0.00000000E+00  0.00000000E+00  0.00000000E+00
  0.00000000E+00  0.00000000E+00  0.00000000E+00
  0.00000000E+00  0.00000000E+00  0.00000000E+00
  0.00000000E+00  0.00000000E+00  0.00000000E+00
  0.00000000E+00  0.00000000E+00  0.00000000E+00
  0.00000000E+00  0.00000000E+00  0.00000000E+00
  0.00000000E+00  0.00000000E+00  0.00000000E+00
  0.00000000E+00  0.00000000E+00  0.00000000E+00
  0.00000000E+00  0.00000000E+00  0.00000000E+00
  0.00000000E+00  0.00000000E+00  0.00000000E+00
  0.00000000E+00  0.00000000E+00  0.00000000E+00
  0.00000000E+00  0.00000000E+00  0.00000000E+00
  0.00000000E+00  0.00000000E+00  0.00000000E+00
  0.00000000E+00  0.00000000E+00  0.00000000E+00
  0.00000000E+00  0.00000000E+00  0.00000000E+00
  0.00000000E+00  0.00000000E+00  0.00000000E+00
  0.00000000E+00  0.00000000E+00  0.00000000E+00
  0.00000000E+00  0.00000000E+00  0.00000000E+00
  0.00000000E+00  0.00000000E+00  0.00000000E+00
  0.00000000E+00  0.00000000E+00  0.00000000E+00
  0.00000000E+00  0.00000000E+00  0.00000000E+00
  0.00000000E+00  0.00000000E+00  0.00000000E+00
  0.00000000E+00  0.00000000E+00  0.00000000E+00
  0.00000000E+00  0.00000000E+00  0.00000000E+00
  0.00000000E+00  0.00000000E+00  0.00000000E+00
  0.00000000E+00  0.00000000E+00  0.00000000E+00
  0.00000000E+00  0.00000000E+00  0.00000000E+00
  0.00000000E+00  0.00000000E+00  0.00000000E+00
  0.00000000E+00  0.00000000E+00  0.00000000E+00
  0.00000000E+00  0.00000000E+00  0.00000000E+00
  0.00000000E+00  0.00000000E+00  0.00000000E+00
  0.00000000E+00  0.00000000E+00  0.00000000E+00
  0.00000000E+00  0.00000000E+00  0.00000000E+00
  0.00000000E+00  0.00000000E+00  0.00000000E+00
  0.00000000E+00  0.00000000E+00  0.00000000E+00
  0.00000000E+00  0.00000000E+00  0.00000000E+00
  0.00000000E+00  0.00000000E+00  0.00000000E+00
  0.00000000E+00  0.00000000E+00  0.00000000E+00
  0.00000000E+00  0.00000000E+00  0.00000000E+00
  0.00000000E+00  0.00000000E+00  0.00000000E+00
  0.00000000E+00  0.00000000E+00  0.00000000E+00
  0.00000000E+00  0.00000000E+00  0.00000000E+00
  0.00000000E+00  0.00000000E+00  0.00000000E+00
  0.00000000E+00  0.00000000E+00  0.00000000E+00
  0.00000000E+00  0.00000000E+00  0.00000000E+00
  0.00000000E+00  0.00000000E+00  0.00000000E+00
  0.00000000E+00  0.00000000E+00  0.00000000E+00
  0.00000000E+00  0.00000000E+00  0.00000000E+00
  0.00000000E+00  0.00000000E+00  0.00000000E+00
  0.00000000E+00  0.00000000E+00  0.00000000E+00
  0.00000000E+00  0.00000000E+00  0.00000000E+00
  0.00000000E+00  0.00000000E+00  0.00000000E+00
  0.00000000E+00  0.00000000E+00  0.00000000E+00
  0.00000000E+00  0.00000000E+00  0.00000000E+00
  0.00000000E+00  0.00000000E+00  0.00000000E+00
  0.00000000E+00  0.00000000E+00  0.00000000E+00
  0.00000000E+00  0.00000000E+00  0.00000000E+00
  0.00000000E+00  0.00000000E+00  0.00000000E+00
  0.00000000E+00  0.00000000E+00  0.00000000E+00
  0.00000000E+00  0.00000000E+00  0.00000000E+00
  0.00000000E+00  0.00000000E+00  0.00000000E+00
  0.00000000E+00  0.00000000E+00  0.00000000E+00
  0.00000000E+00  0.00000000E+00  0.00000000E+00
  0.00000000E+00  0.00000000E+00  0.00000000E+00
  0.00000000E+00  0.00000000E+00  0.00000000E+00
  0.00000000E+00  0.00000000E+00  0.00000000E+00
  0.00000000E+00  0.00000000E+00  0.00000000E+00
  0.00000000E+00  0.00000000E+00  0.00000000E+00
  0.00000000E+00  0.00000000E+00  0.00000000E+00
  0.00000000E+00  0.00000000E+00  0.00000000E+00
  0.00000000E+00  0.00000000E+00  0.00000000E+00
  0.00000000E+00  0.00000000E+00  0.00000000E+00
  0.00000000E+00  0.00000000E+00  0.00000000E+00
  0.00000000E+00  0.00000000E+00  0.00000000E+00
  0.00000000E+00  0.00000000E+00  0.00000000E+00
  0.00000000E+00  0.00000000E+00  0.00000000E+00
  0.00000000E+00  0.00000000E+00  0.00000000E+00
  0.00000000E+00  0.00000000E+00  0.00000000E+00
  0.00000000E+00  0.00000000E+00  0.00000000E+00
  0.00000000E+00  0.00000000E+00  0.00000000E+00
  0.00000000E+00  0.00000000E+00  0.00000000E+00
  0.00000000E+00  0.00000000E+00  0.00000000E+00
  0.00000000E+00  0.00000000E+00  0.00000000E+00
  0.00000000E+00  0.00000000E+00  0.00000000E+00
  0.00000000E+00  0.00000000E+00  0.00000000E+00
  0.00000000E+00  0.00000000E+00  0.00000000E+00
  0.00000000E+00  0.00000000E+00  0.00000000E+00
  0.00000000E+00  0.00000000E+00  0.00000000E+00
  0.00000000E+00  0.00000000E+00  0.00000000E+00
  0.00000000E+00  0.00000000E+00  0.00000000E+00
  0.00000000E+00  0.00000000E+00  0.00000000E+00
  0.00000000E+00  0.00000000E+00  0.00000000E+00
  0.00000000E+00  0.00000000E+00  0.00000000E+00
  0.00000000E+00  0.00000000E+00  0.00000000E+00
  0.00000000E+00  0.00000000E+00  0.00000000E+00
  0.00000000E+00  0.00000000E+00  0.00000000E+00
  0.00000000E+00  0.00000000E+00  0.00000000E+00
  0.00000000E+00  0.00000000E+00  0.00000000E+00
  0.00000000E+00  0.00000000E+00  0.00000000E+00
  0.00000000E+00  0.00000000E+00  0.00000000E+00
  0.00000000E+00  0.00000000E+00  0.00000000E+00
  0.00000000E+00  0.00000000E+00  0.00000000E+00
  0.00000000E+00  0.00000000E+00  0.00000000E+00
  0.00000000E+00  0.00000000E+00  0.00000000E+00
  0.00000000E+00  0.00000000E+00  0.00000000E+00
  0.00000000E+00  0.00000000E+00  0.00000000E+00
  0.00000000E+00  0.00000000E+00  0.00000000E+00
  0.00000000E+00  0.00000000E+00  0.00000000E+00
  0.00000000E+00  0.00000000E+00  0.00000000E+00
  0.00000000E+00  0.00000000E+00  0.00000000E+00
  0.00000000E+00  0.00000000E+00  0.00000000E+00
  0.00000000E+00  0.00000000E+00  0.00000000E+00
  0.00000000E+00  0.00000000E+00  0.00000000E+00
  0.00000000E+00  0.00000000E+00  0.00000000E+00
  0.00000000E+00  0.00000000E+00  0.00000000E+00
  0.00000000E+00  0.00000000E+00  0.00000000E+00
  0.00000000E+00  0.00000000E+00  0.00000000E+00
  0.00000000E+00  0.00000000E+00  0.00000000E+00
  0.00000000E+00  0.00000000E+00  0.00000000E+00
  0.00000000E+00  0.00000000E+00  0.00000000E+00
  0.00000000E+00  0.00000000E+00  0.00000000E+00
  0.00000000E+00  0.00000000E+00  0.00000000E+00
  0.00000000E+00  0.00000000E+00  0.00000000E+00
  0.00000000E+00  0.00000000E+00  0.00000000E+00
  0.00000000E+00  0.00000000E+00  0.00000000E+00
  0.00000000E+00  0.00000000E+00  0.00000000E+00
  0.00000000E+00  0.00000000E+00  0.00000000E+00
  0.00000000E+00  0.00000000E+00  0.00000000E+00
  0.00000000E+00  0.00000000E+00  0.00000000E+00
  0.00000000E+00  0.00000000E+00  0.00000000E+00
  0.00000000E+00  0.00000000E+00  0.00000000E+00
  0.00000000E+00  0.00000000E+00  0.00000000E+00
  0.00000000E+00  0.00000000E+00  0.00000000E+00
  0.00000000E+00  0.00000000E+00  0.00000000E+00
  0.00000000E+00  0.00000000E+00  0.00000000E+00
  0.00000000E+00  0.00000000E+00  0.00000000E+00
  0.00000000E+00  0.00000000E+00  0.00000000E+00