TiO2_rutile_15K (JACS 109 3639-3646 1087) 4x4x6 supercell
1.0
       12.9730319977         0.0000000000         0.0000000000
        0.0000000000        12.9730319977         0.0000000000
        0.0000000000         0.0000000000        17.7244205475
   Ti    O
   96  192
Direct
     0.000000000         0.000000000         0.000000000
     0.000000000         0.000000000         0.166666672
     0.000000000         0.000000000         0.333333343
     0.000000000         0.000000000         0.500000000
     0.000000000         0.000000000         0.666666687
     0.000000000         0.000000000         0.833333313
     0.000000000         0.500000000         0.000000000
     0.000000000         0.500000000         0.166666672
     0.000000000         0.500000000         0.333333343
     0.000000000         0.500000000         0.500000000
     0.000000000         0.500000000         0.666666687
     0.000000000         0.500000000         0.833333313
     0.500000000         0.000000000         0.000000000
     0.500000000         0.000000000         0.166666672
     0.500000000         0.000000000         0.333333343
     0.500000000         0.000000000         0.500000000
     0.500000000         0.000000000         0.666666687
     0.500000000         0.000000000         0.833333313
     0.500000000         0.500000000         0.000000000
     0.500000000         0.500000000         0.166666672
     0.500000000         0.500000000         0.333333343
     0.500000000         0.500000000         0.500000000
     0.500000000         0.500000000         0.666666687
     0.500000000         0.500000000         0.833333313
     0.250000000         0.250000000         0.000000000
     0.250000000         0.250000000         0.166666672
     0.250000000         0.250000000         0.333333343
     0.250000000         0.250000000         0.500000000
     0.250000000         0.250000000         0.666666687
     0.250000000         0.250000000         0.833333313
     0.250000000         0.750000000         0.000000000
     0.250000000         0.750000000         0.166666672
     0.250000000         0.750000000         0.333333343
     0.250000000         0.750000000         0.500000000
     0.250000000         0.750000000         0.666666687
     0.250000000         0.750000000         0.833333313
     0.750000000         0.250000000         0.000000000
     0.750000000         0.250000000         0.166666672
     0.750000000         0.250000000         0.333333343
     0.750000000         0.250000000         0.500000000
     0.750000000         0.250000000         0.666666687
     0.750000000         0.250000000         0.833333313
     0.750000000         0.750000000         0.000000000
     0.750000000         0.750000000         0.166666672
     0.750000000         0.750000000         0.333333343
     0.750000000         0.750000000         0.500000000
     0.750000000         0.750000000         0.666666687
     0.750000000         0.750000000         0.833333313
     0.000000000         0.250000000         0.083333336
     0.000000000         0.250000000         0.250000000
     0.000000000         0.250000000         0.416666657
     0.000000000         0.250000000         0.583333313
     0.000000000         0.250000000         0.750000000
     0.000000000         0.250000000         0.916666687
     0.000000000         0.750000000         0.083333336
     0.000000000         0.750000000         0.250000000
     0.000000000         0.750000000         0.416666657
     0.000000000         0.750000000         0.583333313
     0.000000000         0.750000000         0.750000000
     0.000000000         0.750000000         0.916666687
     0.500000000         0.250000000         0.083333336
     0.500000000         0.250000000         0.250000000
     0.500000000         0.250000000         0.416666657
     0.500000000         0.250000000         0.583333313
     0.500000000         0.250000000         0.750000000
     0.500000000         0.250000000         0.916666687
     0.500000000         0.750000000         0.083333336
     0.500000000         0.750000000         0.250000000
     0.500000000         0.750000000         0.416666657
     0.500000000         0.750000000         0.583333313
     0.500000000         0.750000000         0.750000000
     0.500000000         0.750000000         0.916666687
     0.250000000         0.000000000         0.083333336
     0.250000000         0.000000000         0.250000000
     0.250000000         0.000000000         0.416666657
     0.250000000         0.000000000         0.583333313
     0.250000000         0.000000000         0.750000000
     0.250000000         0.000000000         0.916666687
     0.250000000         0.500000000         0.083333336
     0.250000000         0.500000000         0.250000000
     0.250000000         0.500000000         0.416666657
     0.250000000         0.500000000         0.583333313
     0.250000000         0.500000000         0.750000000
     0.250000000         0.500000000         0.916666687
     0.750000000         0.000000000         0.083333336
     0.750000000         0.000000000         0.250000000
     0.750000000         0.000000000         0.416666657
     0.750000000         0.000000000         0.583333313
     0.750000000         0.000000000         0.750000000
     0.750000000         0.000000000         0.916666687
     0.750000000         0.500000000         0.083333336
     0.750000000         0.500000000         0.250000000
     0.750000000         0.500000000         0.416666657
     0.750000000         0.500000000         0.583333313
     0.750000000         0.500000000         0.750000000
     0.750000000         0.500000000         0.916666687
     0.402345002         0.250000000         0.000000000
     0.402345002         0.250000000         0.166666672
     0.402345002         0.250000000         0.333333343
     0.402345002         0.250000000         0.500000000
     0.402345002         0.250000000         0.666666687
     0.402345002         0.250000000         0.833333313
     0.402345002         0.750000000         0.000000000
     0.402345002         0.750000000         0.166666672
     0.402345002         0.750000000         0.333333343
     0.402345002         0.750000000         0.500000000
     0.402345002         0.750000000         0.666666687
     0.402345002         0.750000000         0.833333313
     0.902345002         0.250000000         0.000000000
     0.902345002         0.250000000         0.166666672
     0.902345002         0.250000000         0.333333343
     0.902345002         0.250000000         0.500000000
     0.902345002         0.250000000         0.666666687
     0.902345002         0.250000000         0.833333313
     0.902345002         0.750000000         0.000000000
     0.902345002         0.750000000         0.166666672
     0.902345002         0.750000000         0.333333343
     0.902345002         0.750000000         0.500000000
     0.902345002         0.750000000         0.666666687
     0.902345002         0.750000000         0.833333313
     0.152345002         0.000000000         0.000000000
     0.152345002         0.000000000         0.166666672
     0.152345002         0.000000000         0.333333343
     0.152345002         0.000000000         0.500000000
     0.152345002         0.000000000         0.666666687
     0.152345002         0.000000000         0.833333313
     0.152345002         0.500000000         0.000000000
     0.152345002         0.500000000         0.166666672
     0.152345002         0.500000000         0.333333343
     0.152345002         0.500000000         0.500000000
     0.152345002         0.500000000         0.666666687
     0.152345002         0.500000000         0.833333313
     0.652345002         0.000000000         0.000000000
     0.652345002         0.000000000         0.166666672
     0.652345002         0.000000000         0.333333343
     0.652345002         0.000000000         0.500000000
     0.652345002         0.000000000         0.666666687
     0.652345002         0.000000000         0.833333313
     0.652345002         0.500000000         0.000000000
     0.652345002         0.500000000         0.166666672
     0.652345002         0.500000000         0.333333343
     0.652345002         0.500000000         0.500000000
     0.652345002         0.500000000         0.666666687
     0.652345002         0.500000000         0.833333313
     0.097654998         0.250000000         0.000000000
     0.097654998         0.250000000         0.166666672
     0.097654998         0.250000000         0.333333343
     0.097654998         0.250000000         0.500000000
     0.097654998         0.250000000         0.666666687
     0.097654998         0.250000000         0.833333313
     0.097654998         0.750000000         0.000000000
     0.097654998         0.750000000         0.166666672
     0.097654998         0.750000000         0.333333343
     0.097654998         0.750000000         0.500000000
     0.097654998         0.750000000         0.666666687
     0.097654998         0.750000000         0.833333313
     0.597654998         0.250000000         0.000000000
     0.597654998         0.250000000         0.166666672
     0.597654998         0.250000000         0.333333343
     0.597654998         0.250000000         0.500000000
     0.597654998         0.250000000         0.666666687
     0.597654998         0.250000000         0.833333313
     0.597654998         0.750000000         0.000000000
     0.597654998         0.750000000         0.166666672
     0.597654998         0.750000000         0.333333343
     0.597654998         0.750000000         0.500000000
     0.597654998         0.750000000         0.666666687
     0.597654998         0.750000000         0.833333313
     0.347654998         0.000000000         0.000000000
     0.347654998         0.000000000         0.166666672
     0.347654998         0.000000000         0.333333343
     0.347654998         0.000000000         0.500000000
     0.347654998         0.000000000         0.666666687
     0.347654998         0.000000000         0.833333313
     0.347654998         0.500000000         0.000000000
     0.347654998         0.500000000         0.166666672
     0.347654998         0.500000000         0.333333343
     0.347654998         0.500000000         0.500000000
     0.347654998         0.500000000         0.666666687
     0.347654998         0.500000000         0.833333313
     0.847654998         0.000000000         0.000000000
     0.847654998         0.000000000         0.166666672
     0.847654998         0.000000000         0.333333343
     0.847654998         0.000000000         0.500000000
     0.847654998         0.000000000         0.666666687
     0.847654998         0.000000000         0.833333313
     0.847654998         0.500000000         0.000000000
     0.847654998         0.500000000         0.166666672
     0.847654998         0.500000000         0.333333343
     0.847654998         0.500000000         0.500000000
     0.847654998         0.500000000         0.666666687
     0.847654998         0.500000000         0.833333313
     0.000000000         0.402345002         0.083333336
     0.000000000         0.402345002         0.250000000
     0.000000000         0.402345002         0.416666657
     0.000000000         0.402345002         0.583333313
     0.000000000         0.402345002         0.750000000
     0.000000000         0.402345002         0.916666687
     0.000000000         0.902345002         0.083333336
     0.000000000         0.902345002         0.250000000
     0.000000000         0.902345002         0.416666657
     0.000000000         0.902345002         0.583333313
     0.000000000         0.902345002         0.750000000
     0.000000000         0.902345002         0.916666687
     0.500000000         0.402345002         0.083333336
     0.500000000         0.402345002         0.250000000
     0.500000000         0.402345002         0.416666657
     0.500000000         0.402345002         0.583333313
     0.500000000         0.402345002         0.750000000
     0.500000000         0.402345002         0.916666687
     0.500000000         0.902345002         0.083333336
     0.500000000         0.902345002         0.250000000
     0.500000000         0.902345002         0.416666657
     0.500000000         0.902345002         0.583333313
     0.500000000         0.902345002         0.750000000
     0.500000000         0.902345002         0.916666687
     0.250000000         0.152345002         0.083333336
     0.250000000         0.152345002         0.250000000
     0.250000000         0.152345002         0.416666657
     0.250000000         0.152345002         0.583333313
     0.250000000         0.152345002         0.750000000
     0.250000000         0.152345002         0.916666687
     0.250000000         0.652345002         0.083333336
     0.250000000         0.652345002         0.250000000
     0.250000000         0.652345002         0.416666657
     0.250000000         0.652345002         0.583333313
     0.250000000         0.652345002         0.750000000
     0.250000000         0.652345002         0.916666687
     0.750000000         0.152345002         0.083333336
     0.750000000         0.152345002         0.250000000
     0.750000000         0.152345002         0.416666657
     0.750000000         0.152345002         0.583333313
     0.750000000         0.152345002         0.750000000
     0.750000000         0.152345002         0.916666687
     0.750000000         0.652345002         0.083333336
     0.750000000         0.652345002         0.250000000
     0.750000000         0.652345002         0.416666657
     0.750000000         0.652345002         0.583333313
     0.750000000         0.652345002         0.750000000
     0.750000000         0.652345002         0.916666687
     0.000000000         0.097654998         0.083333336
     0.000000000         0.097654998         0.250000000
     0.000000000         0.097654998         0.416666657
     0.000000000         0.097654998         0.583333313
     0.000000000         0.097654998         0.750000000
     0.000000000         0.097654998         0.916666687
     0.000000000         0.597654998         0.083333336
     0.000000000         0.597654998         0.250000000
     0.000000000         0.597654998         0.416666657
     0.000000000         0.597654998         0.583333313
     0.000000000         0.597654998         0.750000000
     0.000000000         0.597654998         0.916666687
     0.500000000         0.097654998         0.083333336
     0.500000000         0.097654998         0.250000000
     0.500000000         0.097654998         0.416666657
     0.500000000         0.097654998         0.583333313
     0.500000000         0.097654998         0.750000000
     0.500000000         0.097654998         0.916666687
     0.500000000         0.597654998         0.083333336
     0.500000000         0.597654998         0.250000000
     0.500000000         0.597654998         0.416666657
     0.500000000         0.597654998         0.583333313
     0.500000000         0.597654998         0.750000000
     0.500000000         0.597654998         0.916666687
     0.250000000         0.347654998         0.083333336
     0.250000000         0.347654998         0.250000000
     0.250000000         0.347654998         0.416666657
     0.250000000         0.347654998         0.583333313
     0.250000000         0.347654998         0.750000000
     0.250000000         0.347654998         0.916666687
     0.250000000         0.847654998         0.083333336
     0.250000000         0.847654998         0.250000000
     0.250000000         0.847654998         0.416666657
     0.250000000         0.847654998         0.583333313
     0.250000000         0.847654998         0.750000000
     0.250000000         0.847654998         0.916666687
     0.750000000         0.347654998         0.083333336
     0.750000000         0.347654998         0.250000000
     0.750000000         0.347654998         0.416666657
     0.750000000         0.347654998         0.583333313
     0.750000000         0.347654998         0.750000000
     0.750000000         0.347654998         0.916666687
     0.750000000         0.847654998         0.083333336
     0.750000000         0.847654998         0.250000000
     0.750000000         0.847654998         0.416666657
     0.750000000         0.847654998         0.583333313
     0.750000000         0.847654998         0.750000000
     0.750000000         0.847654998         0.916666687
